d ep stress_yy total_strain_yy
0 0 0 0
0 0 17.198244487881 0.00025003125000012
0 0 34.39297999966 0.00050012499999996
0 0 51.584209604609 0.00075028124999998
0 0 68.771936368333 0.0010004999999998
0 0 85.956163352665 0.00125078125
0 0 103.13689361576 0.0015011250000001
0 0 120.31413021198 0.0017515312499999
0 0 137.48787619204 0.0020019999999999
0 0 154.6581346029 0.0022525312500001
0 0 171.8249084878 0.0025031249999999
0 0 188.98820088633 0.00275378125
0 0 206.14801483436 0.0030044999999999
0 0 223.30435336401 0.00325528125
0 0 240.45721950387 0.003506125
0 0 257.60661627864 0.0037570312499999
0 0 274.75254670956 0.004008
0 0 291.89501381403 0.00425903125
0.0018106393056101 0 298.29153444049 0.0045101249999999
0.0047671355173009 7.3366293169897e-05 290.80373819543 0.0047612812500001
0.0071258109167138 0.00024901339412091 277.69644885901 0.0050124999999999
0.0094761247863088 0.00042774536362 265.26895548687 0.0052637812499999
0.011804006698572 0.00060900531975316 253.56318397827 0.0055151250000001
0.014097709154166 0.00079225443503052 242.59515708556 0.0057665312499999
0.016348028700345 0.00097699854284528 232.35913624487 0.006018
0.018548238551221 0.0011628037440854 222.83273159585 0.0062695312500001
0.02069383282836 0.0013493024287882 213.9819896373 0.0065211249999999
0.022782175316219 0.0015361922559424 205.76585307146 0.00677278125
0.024812124959941 0.0017232307545821 198.13972291556 0.0070244999999999
0.026783684424474 0.0019102277479831 191.05809422995 0.00727628125
0.028697695485521 0.0020970371532952 184.4763728438 0.0075281250000001
0.030555589133767 0.002283549108837 178.35203434699 0.0077800312499999
0.032359188713103 0.00246968292404 172.64529021829 0.008032
0.034110559730873 0.0026553810427489 167.31940450983 0.0082840312500001
0.035811898319862 0.002840604029065 162.34077507737 0.008536125
0.037465450443841 0.0030253264905673 157.67886443445 0.0087882812500001
0.039073454847871 0.0032095338140405 153.30604091626 0.0090404999999999
0.040638103946904 0.00339321958086 149.19737179845 0.00929278125
0.042161518025872 0.0035763835375223 145.33039594777 0.009545125
0.043645729161102 0.0037590300122243 141.68489357923 0.0097975312499999
0.045092672143718 0.0039411666858508 138.24266375778 0.01005
0.046504180360022 0.0041228036422144 134.98731566181 0.01030253125
0.047881985124719 0.004303952637185 131.90407655367 0.010555125
0.049227717358471 0.0044846265386371 128.97961748389 0.01080778125
0.050542911755163 0.0046648389106084 126.20189455259 0.0110605
0.051829007032381 0.0048446036426393 123.56001724975 0.01131328125
0.053087356864512 0.0050239347797494 121.04411064491 0.011566125
0.054319230558312 0.0052028462890201 118.64521425989 0.01181903125
0.055525819281655 0.0053813519395436 116.35518176892 0.012072
0.056708241076744 0.0055594652056825 114.166594503 0.01232503125
0.057867545714688 0.0057371991988276 112.07268498511 0.012578125
0.059004719335143 0.0059145666210395 110.06726932554 0.01283128125
0.060120688839489 0.0060915797354524 108.14468741992 0.0130845
0.061216326021848 0.0062682503494514 106.29975000761 0.01333778125
0.062292451430952 0.0064445898074906 104.52769176088 0.013591125
0.063349837968278 0.0066206089911696 102.82412966623 0.01384453125
0.064389214230239 0.0067963183246884 101.18502605365 0.014098
0.065411267605315 0.0069717277842195 99.606655710838 0.01435153125
0.066416647140238 0.0071468469100839 98.085576586908 0.014605125
0.067405966188862 0.0073216848208543 96.61860365629 0.01485878125
0.068379804860192 0.0074962502287329 95.202785563044 0.0151125
0.069338712277062 0.0076705514556652 93.83538372185 0.01536628125
0.070283208662869 0.0078445964498306 92.513853583411 0.015620125
0.071213787267171 0.0080183928021923 91.235827817098 0.01587403125
0.072130916143682 0.0081919477628944 89.999101190285 0.016128
0.073035039793692 0.0083652682573538 88.801616950242 0.01638203125
0.073926580683022 0.0085383609019068 87.641454544441 0.016636125
0.074805940646084 0.008711232018958 86.516818526713 0.01689028125
0.075673502184109 0.0088838876515567 85.426028522523 0.0171445
0.076529629666559 0.009056333577371 84.367510138702 0.01739878125
0.077374670444296 0.0092285753220463 83.339786715967 0.017653125
0.078208955881856 0.0094006181719488 82.34147183546 0.01790753125
0.07903280231394 0.0095724671862787 81.371262502688 0.018162
0.07984651193455 0.0097441272085881 80.427932936561 0.01841653125
0.080650373622214 0.0099156028777009 79.51032890457 0.018671125
0.081444663707451 0.010086898638062 78.617362548234 0.01892578125
0.082229646686572 0.010258018749532 77.748007650947 0.0191805
0.08300557588756 0.01042896729667 76.901295303297 0.01943528125
0.083772694089276 0.010599748197494 76.076309930503 0.019690125
0.084531234099451 0.010770365211771 75.2721856453 0.01994503125
0.085281419294336 0.010940821948854 74.488102896167 0.0202
0.086023464123096 0.011111121875085 73.723285383168 0.02045503125
0.086757574578419 0.01128126832079 72.976997218343 0.020710125
0.087483948637752 0.011451264486886 72.248540306326 0.02096528125
0.088202776676148 0.011621113451134 71.537251926814 0.0212205
0.088914241852684 0.011790818174031 70.842502501215 0.02147578125
0.089618520473456 0.011960381504396 70.163693526223 0.021731125
0.090315782331551 0.012129806184637 69.500255661235 0.02198653125
0.091006191027026 0.012299094855744 68.851646955098 0.022242
0.09168990426704 0.012468250061996 68.217351201743 0.02249753125
0.092367074147976 0.012637274255427 67.596876413458 0.022753125
0.093037847421611 0.012806169800044 66.989753401352 0.02300878125
0.093702365745151 0.01297493897582 66.395534455556 0.0232645
0.094360765917147 0.013143583982485 65.813792116163 0.02352028125
0.095013180099513 0.013312106943097 65.244118028461 0.023776125
0.095659736027649 0.013480509907442 64.686121874763 0.02403203125
0.096300557208359 0.013648794855255 64.13943037793 0.024288
0.096935763106844 0.013816963699262 63.60368637052 0.02454403125
0.09756546932368 0.013985018288078 63.078547924568 0.024800125
0.098189787761973 0.014152960408953 62.563687537577 0.02505628125
0.098808826785768 0.014320791790374 62.058791370408 0.0253125
0.099422691370014 0.014488514104543 61.563558533193 0.02556878125
0.10003148324231 0.014656128969722 61.077700416237 0.025825125
0.1006353010178 0.01482363795247 60.600940061754 0.02608153125
0.10123424032695 0.014991042569766 60.133011574257 0.026338
0.10182839393637 0.015158344291024 59.67365956692 0.02659453125
0.10241785186438 0.015325544540019 59.222638640502 0.026851125
0.10300270149001 0.015492644696707 58.779712893687 0.02710778125
0.10358302765724 0.015659646098973 58.344655461869 0.0273645
0.10415891277338 0.015826550044283 57.917248083093 0.02762128125
0.1047304369037 0.015993357791264 57.497280688389 0.027878125
0.10529767786053 0.016160070561208 57.084551016065 0.02813503125
0.10586071128861 0.016326689539508 56.678864247471 0.028392
0.10641961074648 0.016493215877025 56.280032663017 0.02864903125
0.10697444778381 0.016659650691395 55.887875317512 0.028906125
0.10752529201517 0.016825995068274 55.502217733147 0.02916328125
0.10807221119096 0.016992250062526 55.122891608922 0.0294205
0.10861527126386 0.017158416699363 54.749734546511 0.02967778125
0.10915453645405 0.017324495975429 54.382589789515 0.029935125
0.10969006930986 0.017490488859836 54.021305977683 0.03019253125
0.11022193076663 0.017656396295159 53.665736913369 0.03045
0.11075018020309 0.017822219198384 53.315741339992 0.03070753125
0.11127487549469 0.017987958461816 52.971182732397 0.030965125
0.11179607306488 0.018153614953944 52.631929097677 0.03122278125
0.11231382793469 0.018319189520283 52.297852785673 0.0314805
0.11282819376934 0.01848468298416 51.968830309673 0.03173828125
0.11333922292368 0.018650096147482 51.644742175447 0.031996125
0.11384696648515 0.018815429791468 51.32547271899 0.03225403125
0.11435147431544 0.01898068467735 51.010909952021 0.032512
0.11485279509003 0.019145861547041 50.700945415171 0.03277003125
0.11535097633646 0.019310961123788 50.395474037986 0.033028125
0.11584606447096 0.019475984112785 50.094394005682 0.03328628125
0.11633810483329 0.019640931201765 49.79760663239 0.0335445
0.11682714172101 0.019805803061578 49.505016239843 0.03380278125
0.11731321842128 0.01997060034673 49.216530042392 0.034061125
0.11779637724241 0.020135323695914 48.932058036702 0.03431953125
0.11827665954386 0.020299973732515 48.651512896712 0.034578
0.11875410576474 0.020464551065094 48.374809873544 0.03483653125
0.11922875545175 0.020629056287856 48.101866699638 0.035095125
0.11970064728573 0.020793489981099 47.832603497345 0.03535378125
0.12016981910733 0.020957852711644 47.566942691497 0.0356125
0.12063630794174 0.021122145033255 47.304808925829 0.03587128125
0.1211001500226 0.021286367487036 47.046128982992 0.036130125
0.12156138081473 0.021450520601815 46.790831708206 0.03638903125
0.12202003503629 0.021614604894519 46.538847936027 0.036648
0.1224761466801 0.021778620870527 46.290110420307 0.03690703125
0.12292974903405 0.021942569024015 46.04455376716 0.037166125
0.12338087470139 0.022106449838292 45.802114370427 0.03742528125
0.12382955561892 0.02227026378611 45.562730350591 0.0376845
0.12427582307644 0.022434011329985 45.326341495215 0.03794378125
0.12471970773372 0.022597692922482 45.092889202754 0.038203125
0.1251612396382 0.022761309006511 44.862316428011 0.03846253125
0.1256004482414 0.022924860015596 44.634567630124 0.038722
0.12603736241489 0.02308834637415 44.409588722612 0.03898153125
0.12647201046584 0.023251768497723 44.187327025366 0.039241125
0.12690442015201 0.023415126793261 43.96773121852 0.03950078125
0.12733461869626 0.023578421659339 43.75075129818 0.0397605
0.12776263280029 0.023741653486394 43.536338534002 0.04002028125
0.12818848865845 0.023904822656954 43.324445428189 0.040280125
0.12861221197074 0.024067929545847 43.115025676206 0.04054003125
0.12903382795532 0.024230974520417 42.908034129107 0.0408
0.1294533613611 0.024393957940723 42.703426756965 0.04106003125
0.12987083647919 0.024556880159737 42.501160614146 0.041320125
0.13028627715478 0.024719741523531 42.30119380542 0.04158028125
0.13069970679787 0.02488254237146 42.103485453807 0.0418405
0.13111114839436 0.025045283036341 41.907995669151 0.04210078125
0.13152062451638 0.025207963844624 41.714685518194 0.042361125
0.13192815733234 0.025370585116557 41.523516995627 0.04262153125
0.13233376861685 0.025533147166347 41.33445299616 0.042882
0.13273747976024 0.025695650302319 41.147457287625 0.04314253125
0.13313931177738 0.025858094827057 40.962494485261 0.043403125
0.13353928531728 0.026020481037562 40.779530026399 0.04366378125
0.1339374206713 0.026182809225387 40.598530146598 0.0439245
0.13433373778161 0.026345079676771 40.419461856358 0.04418528125
0.13472825624949 0.02650729267278 40.242292918633 0.044446125
0.1351209953431 0.026669448489428 40.066991827239 0.04470703125
0.13551197400538 0.026831547397808 39.89352778588 0.044968
0.13590121086126 0.026993589664207 39.721870688054 0.04522903125
0.13628872422503 0.027155575550229 39.551991097542 0.045490125
0.13667453210752 0.027317505312905 39.383860229504 0.04575128125
0.13705865222262 0.027479379204804 39.217449932425 0.0460125
0.1374411019943 0.027641197474143 39.052732670402 0.04627378125
0.13782189856266 0.027802960364886 38.889681506311 0.046535125
0.13820105879067 0.027964668116852 38.728270085176 0.04679653125
0.13857859926983 0.028126320965806 38.568472618523 0.047058
0.13895453632641 0.028287919143557 38.410263868848 0.04731953125
0.13932888602712 0.028449462878052 38.253619134807 0.047581125
0.13970166418461 0.028610952393463 38.098514236928 0.04784278125
0.14007288636317 0.028772387910278 37.944925503533 0.0481045
0.1404425678838 0.028933769645381 37.792829757458 0.04836628125
0.14081072382955 0.029095097812137 37.642204302876 0.048628125
0.14117736905045 0.029256372620473 37.493026912765 0.04889003125
0.14154251816849 0.029417594276955 37.345275816643 0.049152
0.14190618558221 0.029578762984861 37.198929688794 0.04941403125
0.14226838547155 0.029739878944259 37.053967636736 0.049676125
0.14262913180237 0.029900942352075 36.910369190086 0.04993828125
0.14298843833052 0.030061953402165 36.768114289963 0.0502005
0.14334631860663 0.030222912285381 36.627183278306 0.05046278125
0.14370278597993 0.030383819189639 36.487556887947 0.050725125
0.14405785360227 0.030544674299978 36.349216232796 0.05098753125
0.14441153443246 0.03070547779863 36.21214279818 0.05125
0.14476384123981 0.030866229865074 36.076318431765 0.05151253125
