d ep stress_yy total_strain_yy
0 0 0 0
0 0 17.198244487881 0.00025003125000012
0 0 34.39297999966 0.00050012499999996
0 0 51.584209604609 0.00075028124999998
0 0 68.771936368333 0.0010004999999998
0 0 85.956163352665 0.00125078125
0 0 103.13689361576 0.0015011250000001
0 0 120.31413021198 0.0017515312499999
0 0 137.48787619204 0.0020019999999999
0 0 154.6581346029 0.0022525312500001
0 0 171.8249084878 0.0025031249999999
0 0 188.98820088633 0.00275378125
0 0 206.14801483436 0.0030044999999999
0 0 223.30435336401 0.00325528125
0 0 240.45721950387 0.003506125
0 0 257.60661627864 0.0037570312499999
0 0 274.75254670956 0.004008
0 0 291.89501381403 0.00425903125
0.0068929699015458 0 267.90875244412 0.0045101249999999
0.013563377147396 0 244.21553091009 0.0047612812500001
0.018598982809398 0 229.52844433005 0.0050124999999999
0.021763928537148 8.5373776149498e-05 218.88297876195 0.0052637812499999
0.024472218767452 0.00018252495308663 210.07632418317 0.0055151250000001
0.026952078677269 0.000281645938652 202.50748491244 0.0057665312499999
0.029257324695259 0.00038249889021968 195.8604312637 0.006018
0.0314232199735 0.00048490230084248 189.93062755066 0.0062695312500001
0.033474378437069 0.00058871185752954 184.57705516433 0.0065211249999999
0.035428800409819 0.00069380935368234 179.69784572575 0.00677278125
0.037300130248094 0.00080009574757348 175.21672241178 0.0070244999999999
0.039099009219525 0.00090748656163652 171.07491841295 0.00727628125
0.040833931074318 0.0010159086949773 167.22609347906 0.0075281250000001
0.042511794049134 0.0011252985706769 163.63302244602 0.0077800312499999
0.044138341235199 0.0012355986658019 160.26520615782 0.008032
0.044138341235199 0.0012355986658019 153.77040991839 0.0077800312499999
0.044138341235199 0.0012355986658019 147.27431055127 0.0075281250000001
0.044138341235199 0.0012355986658019 140.77690692613 0.00727628125
0.044138341235199 0.0012355986658019 134.27819791128 0.0070244999999999
0.044138341235199 0.0012355986658019 127.77818237367 0.00677278125
0.044138341235199 0.0012355986658019 121.27685917886 0.0065211249999999
0.044138341235199 0.0012355986658019 114.77422719104 0.0062695312500001
0.044138341235199 0.0012355986658019 108.27028527302 0.006018
0.044138341235199 0.0012355986658019 101.76503228624 0.0057665312499999
0.044138341235199 0.0012355986658019 95.258467090747 0.0055151250000001
0.044138341235199 0.0012355986658019 88.750588545218 0.0052637812499999
0.044138341235199 0.0012355986658019 82.241395506918 0.0050124999999999
0.044138341235199 0.0012355986658019 75.730886831753 0.0047612812500001
0.044138341235199 0.0012355986658019 69.219061374216 0.0045101249999999
0.044138341235199 0.0012355986658019 62.705917987452 0.00425903125
0.044138341235199 0.0012355986658019 56.191455523142 0.004008
0.044138341235199 0.0012355986658019 49.675672831638 0.0037570312499999
0.044138341235199 0.0012355986658019 43.158568761859 0.003506125
0.044138341235199 0.0012355986658019 36.640142161331 0.00325528125
0.044138341235199 0.0012355986658019 30.120391876183 0.0030044999999999
0.044138341235199 0.0012355986658019 23.599316751132 0.00275378125
0.044138341235199 0.0012355986658019 17.076915629508 0.0025031249999999
0.044138341235199 0.0012355986658019 10.553187353206 0.0022525312500001
0.044138341235199 0.0012355986658019 4.028130762744 0.0020019999999999
0.044138341235199 0.0012355986658019 -2.6869580575732 0.0017515312499999
0.044138341235199 0.0012355986658019 4.0281307627378 0.0020019999999999
0.044138341235199 0.0012355986658019 10.553187353211 0.0022525312500001
0.044138341235199 0.0012355986658019 17.076915629511 0.0025031249999999
0.044138341235199 0.0012355986658019 23.599316751134 0.00275378125
0.044138341235199 0.0012355986658019 30.120391876177 0.0030044999999999
0.044138341235199 0.0012355986658019 36.640142161324 0.00325528125
0.044138341235199 0.0012355986658019 43.158568761846 0.003506125
0.044138341235199 0.0012355986658019 49.675672831621 0.0037570312499999
0.044138341235199 0.0012355986658019 56.191455523124 0.004008
0.044138341235199 0.0012355986658019 62.705917987425 0.00425903125
0.044138341235199 0.0012355986658019 69.219061374188 0.0045101249999999
0.044138341235199 0.0012355986658019 75.730886831716 0.0047612812500001
0.044138341235199 0.0012355986658019 82.241395506874 0.0050124999999999
0.044138341235199 0.0012355986658019 88.750588545172 0.0052637812499999
0.044138341235199 0.0012355986658019 95.258467090709 0.0055151250000001
0.044138341235199 0.0012355986658019 101.7650322862 0.0057665312499999
0.044138341235199 0.0012355986658019 108.27028527298 0.006018
0.044138341235199 0.0012355986658019 114.774227191 0.0062695312500001
0.044138341235199 0.0012355986658019 121.27685917882 0.0065211249999999
0.044138341235199 0.0012355986658019 127.77818237362 0.00677278125
0.044138341235199 0.0012355986658019 134.27819791123 0.0070244999999999
0.044138341235199 0.0012355986658019 140.77690692607 0.00727628125
0.044138341235199 0.0012355986658019 147.27431055122 0.0075281250000001
0.044138341235199 0.0012355986658019 153.77040991834 0.0077800312499999
0.044138353132909 0.0012355986658019 160.26516582371 0.008032
0.045718351278435 0.0013467589508298 157.09745467823 0.0082840312500001
0.047255892002539 0.0014587340469075 154.10861606009 0.008536125
0.048754452148586 0.0015714829176873 151.28076323896 0.0087882812500001
0.050217051588441 0.0016849682452056 148.59856022793 0.0090404999999999
0.051646325871071 0.0017991559240121 146.048778587 0.00929278125
0.053044592061146 0.0019140146461343 143.61992296585 0.009545125
0.054413900698656 0.0020295155569869 141.30193721458 0.0097975312499999
0.055756077302426 0.0021456319673203 139.08597093797 0.01005
0.057072755884709 0.0022623391099662 136.96419203726 0.01030253125
0.058365406280153 0.002379613932906 134.92963469423 0.010555125
0.059635356636733 0.0024974349218177 132.97607497645 0.01080778125
0.060883812072051 0.0026157819471372 131.09792821392 0.0110605
0.060883815879539 0.0026157819471372 126.48825754162 0.01080778125
0.060883815879539 0.0026157819471372 121.87767585121 0.010555125
0.060883815879539 0.0026157819471372 117.26617264016 0.01030253125
0.060883815879539 0.0026157819471372 112.65374711152 0.01005
0.060883815879539 0.0026157819471372 108.04039846739 0.0097975312499999
0.060883815879539 0.0026157819471372 103.42612590891 0.009545125
0.060883815879539 0.0026157819471372 98.810928636257 0.00929278125
0.060883815879539 0.0026157819471372 94.194805848634 0.0090404999999999
0.060883815879539 0.0026157819471372 89.577756744272 0.0087882812500001
0.060883815879539 0.0026157819471372 84.959780520436 0.008536125
0.060883815879539 0.0026157819471372 80.340876373426 0.0082840312500001
0.060883815879539 0.0026157819471372 75.721043498556 0.008032
0.060883815879539 0.0026157819471372 71.100281090175 0.0077800312499999
0.060883815879539 0.0026157819471372 66.478588341658 0.0075281250000001
0.060883815879539 0.0026157819471372 61.855964445391 0.00727628125
0.060883815879539 0.0026157819471372 57.232408592798 0.0070244999999999
0.060883815879539 0.0026157819471372 52.607919974321 0.00677278125
0.060883815879539 0.0026157819471372 47.982497779397 0.0065211249999999
0.060883815879539 0.0026157819471372 43.356141196516 0.0062695312500001
0.060883815879539 0.0026157819471372 38.728849413144 0.006018
0.060883815879539 0.0026157819471372 34.100621615803 0.0057665312499999
0.060883815879539 0.0026157819471372 29.471456990002 0.0055151250000001
0.060883815879539 0.0026157819471372 24.841354720266 0.0052637812499999
0.060883815879539 0.0026157819471372 20.210313990134 0.0050124999999999
0.060883815879539 0.0026157819471372 15.57833398216 0.0047612812500001
0.060883815879539 0.0026157819471372 10.945413877879 0.0045101249999999
0.060883815879539 0.0026157819471372 6.3115528578751 0.00425903125
0.060883815879539 0.0026157819471372 1.6767501016876 0.004008
0.060883815879539 0.0026157819471372 -3.2255148100618 0.0037570312499999
0.060883815879539 0.0026157819471372 1.6767501016865 0.004008
0.060883815879539 0.0026157819471372 6.3115528578681 0.00425903125
0.060883815879539 0.0026157819471372 10.945413877871 0.0045101249999999
0.060883815879539 0.0026157819471372 15.578333982148 0.0047612812500001
0.060883815879539 0.0026157819471372 20.210313990121 0.0050124999999999
0.060883815879539 0.0026157819471372 24.841354720254 0.0052637812499999
0.060883815879539 0.0026157819471372 29.471456989991 0.0055151250000001
0.060883815879539 0.0026157819471372 34.100621615797 0.0057665312499999
0.060883815879539 0.0026157819471372 38.728849413135 0.006018
0.060883815879539 0.0026157819471372 43.356141196501 0.0062695312500001
0.060883815879539 0.0026157819471372 47.982497779383 0.0065211249999999
0.060883815879539 0.0026157819471372 52.60791997431 0.00677278125
0.060883815879539 0.0026157819471372 57.232408592792 0.0070244999999999
0.060883815879539 0.0026157819471372 61.855964445385 0.00727628125
0.060883815879539 0.0026157819471372 66.478588341649 0.0075281250000001
0.060883815879539 0.0026157819471372 71.100281090168 0.0077800312499999
0.060883815879539 0.0026157819471372 75.721043498551 0.008032
0.060883815879539 0.0026157819471372 80.340876373419 0.0082840312500001
0.060883815879539 0.0026157819471372 84.959780520429 0.008536125
0.060883815879539 0.0026157819471372 89.577756744264 0.0087882812500001
0.060883815879539 0.0026157819471372 94.194805848618 0.0090404999999999
0.060883815879539 0.0026157819471372 98.810928636243 0.00929278125
0.060883815879539 0.0026157819471372 103.4261259089 0.009545125
0.060883815879539 0.0026157819471372 108.04039846737 0.0097975312499999
0.060883815879539 0.0026157819471372 112.6537471115 0.01005
0.060883815879539 0.0026157819471372 117.26617264015 0.01030253125
0.060883815879539 0.0026157819471372 121.8776758512 0.010555125
0.060883815879539 0.0026157819471372 126.48825754161 0.01080778125
0.060883815879539 0.0026157819471372 131.09791850734 0.0110605
0.062111870274768 0.0027346361311563 129.29016368061 0.01131328125
0.063320534632669 0.0028539797322759 127.54823318214 0.011566125
0.064510715166648 0.0029737964235703 125.86802550574 0.01181903125
0.065683279593328 0.0030940696534476 124.24575550884 0.012072
0.066838997810978 0.0032147849368049 122.67801278032 0.01232503125
0.067978592234339 0.0033359281722384 121.16166134615 0.012578125
0.069102732786276 0.0034574859908928 119.69382380655 0.01283128125
0.070212042172937 0.0035794457002686 118.27185360078 0.0130845
0.071307100491988 0.0037017952337539 116.89331091551 0.01333778125
0.072388449273957 0.0038245231051736 115.55594167449 0.013591125
0.073456595040603 0.0039476183677132 114.25765914459 0.01384453125
0.074512012448969 0.0040710705767031 112.99652777507 0.014098
0.074512017421091 0.0040710705767031 109.43671754233 0.01384453125
0.074512017421091 0.0040710705767031 105.87620949772 0.013591125
0.074512017421091 0.0040710705767031 102.31499286984 0.01333778125
0.074512017421091 0.0040710705767031 98.75306704791 0.0130845
0.074512017421091 0.0040710705767031 95.190431420409 0.01283128125
0.074512017421091 0.0040710705767031 91.627085375084 0.012578125
0.074512017421091 0.0040710705767031 88.063028298935 0.01232503125
0.074512017421091 0.0040710705767031 84.498259578235 0.012072
0.074512017421091 0.0040710705767031 80.932778598508 0.01181903125
0.074512017421091 0.0040710705767031 77.366584744542 0.011566125
0.074512017421091 0.0040710705767031 73.79967740038 0.01131328125
0.074512017421091 0.0040710705767031 70.232055949319 0.0110605
0.074512017421091 0.0040710705767031 66.663719773919 0.01080778125
0.074512017421091 0.0040710705767031 63.09466825599 0.010555125
0.074512017421091 0.0040710705767031 59.5249007766 0.01030253125
0.074512017421091 0.0040710705767031 55.954416716042 0.01005
0.074512017421091 0.0040710705767031 52.38321545391 0.0097975312499999
0.074512017421091 0.0040710705767031 48.81129636901 0.009545125
0.074512017421091 0.0040710705767031 45.238658839408 0.00929278125
0.074512017421091 0.0040710705767031 41.665302242411 0.0090404999999999
0.074512017421091 0.0040710705767031 38.091225954595 0.0087882812500001
0.074512017421091 0.0040710705767031 34.516429351755 0.008536125
0.074512017421091 0.0040710705767031 30.940911808952 0.0082840312500001
0.074512017421091 0.0040710705767031 27.364672700477 0.008032
0.074512017421091 0.0040710705767031 23.787711399865 0.0077800312499999
0.074512017421091 0.0040710705767031 20.210027279908 0.0075281250000001
0.074512017421091 0.0040710705767031 16.63161971261 0.00727628125
0.074512017421091 0.0040710705767031 13.052488069235 0.0070244999999999
0.074512017421091 0.0040710705767031 9.4726317202923 0.00677278125
0.074512017421091 0.0040710705767031 5.8920500354992 0.0065211249999999
0.074512017421091 0.0040710705767031 2.3107423838415 0.0062695312500001
0.074512017421091 0.0040710705767031 -1.3963515886854 0.006018
0.074512017421091 0.0040710705767031 2.3107423838417 0.0062695312500001
0.074512017421091 0.0040710705767031 5.8920500355044 0.0065211249999999
0.074512017421091 0.0040710705767031 9.472631720296 0.00677278125
0.074512017421091 0.0040710705767031 13.05248806924 0.0070244999999999
0.074512017421091 0.0040710705767031 16.631619712608 0.00727628125
0.074512017421091 0.0040710705767031 20.210027279909 0.0075281250000001
0.074512017421091 0.0040710705767031 23.787711399868 0.0077800312499999
0.074512017421091 0.0040710705767031 27.364672700478 0.008032
0.074512017421091 0.0040710705767031 30.940911808955 0.0082840312500001
0.074512017421091 0.0040710705767031 34.516429351754 0.008536125
0.074512017421091 0.0040710705767031 38.091225954592 0.0087882812500001
0.074512017421091 0.0040710705767031 41.665302242407 0.0090404999999999
0.074512017421091 0.0040710705767031 45.238658839399 0.00929278125
0.074512017421091 0.0040710705767031 48.811296369003 0.009545125
0.074512017421091 0.0040710705767031 52.383215453905 0.0097975312499999
0.074512017421091 0.0040710705767031 55.954416716041 0.01005
0.074512017421091 0.0040710705767031 59.524900776595 0.01030253125
0.074512017421091 0.0040710705767031 63.094668255989 0.010555125
0.074512017421091 0.0040710705767031 66.663719773922 0.01080778125
0.074512017421091 0.0040710705767031 70.232055949319 0.0110605
0.074512017421091 0.0040710705767031 73.799677400378 0.01131328125
0.074512017421091 0.0040710705767031 77.366584744541 0.011566125
0.074512017421091 0.0040710705767031 80.932778598505 0.01181903125
0.074512017421091 0.0040710705767031 84.498259578232 0.012072
0.074512017421091 0.0040710705767031 88.063028298932 0.01232503125
0.074512017421091 0.0040710705767031 91.627085375077 0.012578125
0.074512017421091 0.0040710705767031 95.190431420406 0.01283128125
0.074512017421091 0.0040710705767031 98.75306704791 0.0130845
0.074512017421091 0.0040710705767031 102.31499286984 0.01333778125
0.074512017421091 0.0040710705767031 105.87620949772 0.013591125
0.074512017421091 0.0040710705767031 109.43671754232 0.01384453125
0.074512017421091 0.0040710705767031 112.99651761371 0.014098
0.075555147078454 0.0041948697558255 111.77074895101 0.01435153125
0.076586417910496 0.0043190063663139 110.57864839234 0.014605125
0.077606219539322 0.0044434712788916 109.41866497702 0.01485878125
0.078614924151924 0.0045682557480275 108.28934079464 0.0151125
0.079612883301869 0.0046933513884376 107.18931227579 0.01536628125
0.080600429509676 0.0048187501533108 106.11730225178 0.015620125
0.081577877698713 0.004944444314557 105.07211284253 0.01587403125
0.082545526499747 0.0050704264443369 104.05261905609 0.016128
0.083503659430048 0.005196689398113 103.0577630254 0.01638203125
0.084452545964118 0.0053232262989628 102.0865488043 0.016636125
0.08539244250806 0.0054500305230388 101.13803765883 0.01689028125
0.086323584833478 0.0055770960141466 100.21135247009 0.0171445
0.086323593288385 0.0055770960141466 97.325647677333 0.01689028125
0.086323593288385 0.0055770960141466 94.439385764173 0.016636125
0.086323593288385 0.0055770960141466 91.552551834315 0.01638203125
0.086323593288385 0.0055770960141466 88.66514539628 0.016128
0.086323593288385 0.0055770960141466 85.777165958011 0.01587403125
0.086323593288385 0.0055770960141466 82.888613026854 0.015620125
0.086323593288385 0.0055770960141466 79.999486109556 0.01536628125
0.086323593288385 0.0055770960141466 77.109784712282 0.0151125
0.086323593288385 0.0055770960141466 74.2195083406 0.01485878125
0.086323593288385 0.0055770960141466 71.328656499478 0.014605125
0.086323593288385 0.0055770960141466 68.437228693292 0.01435153125
0.086323593288385 0.0055770960141466 65.545224425824 0.014098
0.086323593288385 0.0055770960141466 62.652643200251 0.01384453125
0.086323593288385 0.0055770960141466 59.759484519163 0.013591125
0.086323593288385 0.0055770960141466 56.865747884542 0.01333778125
0.086323593288385 0.0055770960141466 53.971432797772 0.0130845
0.086323593288385 0.0055770960141466 51.076538759646 0.01283128125
0.086323593288385 0.0055770960141466 48.181065270332 0.012578125
0.086323593288385 0.0055770960141466 45.285011829426 0.01232503125
0.086323593288385 0.0055770960141466 42.388377935897 0.012072
0.086323593288385 0.0055770960141466 39.491163088119 0.01181903125
0.086323593288385 0.0055770960141466 36.593366783861 0.011566125
0.086323593288385 0.0055770960141466 33.694988520281 0.01131328125
0.086323593288385 0.0055770960141466 30.796027793938 0.0110605
0.086323593288385 0.0055770960141466 27.896484100784 0.01080778125
0.086323593288385 0.0055770960141466 24.996356936151 0.010555125
0.086323593288385 0.0055770960141466 22.095645794773 0.01030253125
0.086323593288385 0.0055770960141466 19.194350170766 0.01005
0.086323593288385 0.0055770960141466 16.29246955764 0.0097975312499999
0.086323593288385 0.0055770960141466 13.390003448294 0.009545125
0.086323593288385 0.0055770960141466 10.486951335009 0.00929278125
0.086323593288385 0.0055770960141466 7.5833127094544 0.0090404999999999
0.086323593288385 0.0055770960141466 4.6790870626899 0.0087882812500001
0.086323593288385 0.0055770960141466 1.7742738851494 0.008536125
0.086323593288385 0.0055770960141466 -1.2484857219508 0.0082840312500001
0.086323593288385 0.0055770960141466 1.7742738851483 0.008536125
0.086323593288385 0.0055770960141466 4.6790870626879 0.0087882812500001
0.086323593288385 0.0055770960141466 7.5833127094544 0.0090404999999999
0.086323593288385 0.0055770960141466 10.486951335009 0.00929278125
0.086323593288385 0.0055770960141466 13.390003448292 0.009545125
0.086323593288385 0.0055770960141466 16.292469557639 0.0097975312499999
0.086323593288385 0.0055770960141466 19.194350170767 0.01005
0.086323593288385 0.0055770960141466 22.095645794775 0.01030253125
0.086323593288385 0.0055770960141466 24.996356936152 0.010555125
0.086323593288385 0.0055770960141466 27.896484100788 0.01080778125
0.086323593288385 0.0055770960141466 30.796027793941 0.0110605
0.086323593288385 0.0055770960141466 33.694988520283 0.01131328125
0.086323593288385 0.0055770960141466 36.593366783863 0.011566125
0.086323593288385 0.0055770960141466 39.491163088122 0.01181903125
0.086323593288385 0.0055770960141466 42.388377935902 0.012072
0.086323593288385 0.0055770960141466 45.285011829433 0.01232503125
0.086323593288385 0.0055770960141466 48.181065270341 0.012578125
0.086323593288385 0.0055770960141466 51.07653875965 0.01283128125
0.086323593288385 0.0055770960141466 53.971432797778 0.0130845
0.086323593288385 0.0055770960141466 56.865747884548 0.01333778125
0.086323593288385 0.0055770960141466 59.759484519168 0.013591125
0.086323593288385 0.0055770960141466 62.652643200254 0.01384453125
0.086323593288385 0.0055770960141466 65.545224425825 0.014098
0.086323593288385 0.0055770960141466 68.437228693293 0.01435153125
0.086323593288385 0.0055770960141466 71.328656499479 0.014605125
0.086323593288385 0.0055770960141466 74.219508340602 0.01485878125
0.086323593288385 0.0055770960141466 77.109784712285 0.0151125
0.086323593288385 0.0055770960141466 79.999486109559 0.01536628125
0.086323593288385 0.0055770960141466 82.888613026859 0.015620125
0.086323593288385 0.0055770960141466 85.777165958018 0.01587403125
0.086323593288385 0.0055770960141466 88.665145396288 0.016128
0.086323593288385 0.0055770960141466 91.55255183432 0.01638203125
0.086323593288385 0.0055770960141466 94.439385764178 0.016636125
0.086323593288385 0.0055770960141466 97.325647677341 0.01689028125
0.086323593288385 0.0055770960141466 100.21133806469 0.0171445
0.087246223226419 0.0057044159389192 99.305638529025 0.01739878125
0.088160570910927 0.0058319847047796 98.420114006935 0.017653125
0.08906684017692 0.005959796574187 97.554030026797 0.01790753125
0.089965233994652 0.0060878460039031 96.706677091597 0.018162
0.090855946589082 0.0062161276355265 95.877382397183 0.01841653125
0.091739163970488 0.0063446362865821 95.065507368879 0.018671125
0.092615064422553 0.006473366942232 94.270445402555 0.01892578125
0.093483818954425 0.0066023147474617 93.491619787791 0.0191805
0.094345591718498 0.006731474999766 92.728481797162 0.01943528125
0.095200540397432 0.0068608431422784 91.980508925553 0.019690125
0.096048816563808 0.0069904147572869 91.247203264991 0.01994503125
0.096890566013598 0.0071201855601539 90.528090003707 0.0202
0.096890570082401 0.0071201855601539 88.112306593953 0.01994503125
0.096890570082401 0.0071201855601539 85.696052594726 0.019690125
0.096890570082401 0.0071201855601539 83.279321660542 0.01943528125
0.096890570082401 0.0071201855601539 80.862113382927 0.0191805
0.096890570082401 0.0071201855601539 78.444427352931 0.01892578125
0.096890570082401 0.0071201855601539 76.026263161096 0.018671125
0.096890570082401 0.0071201855601539 73.607620397494 0.01841653125
0.096890570082401 0.0071201855601539 71.188498651682 0.018162
0.096890570082401 0.0071201855601539 68.768897512745 0.01790753125
0.096890570082401 0.0071201855601539 66.348816569265 0.017653125
0.096890570082401 0.0071201855601539 63.928255409336 0.01739878125
0.096890570082401 0.0071201855601539 61.507213620553 0.0171445
0.096890570082401 0.0071201855601539 59.085690790017 0.01689028125
0.096890570082401 0.0071201855601539 56.663686504336 0.016636125
0.096890570082401 0.0071201855601539 54.241200349619 0.01638203125
0.096890570082401 0.0071201855601539 51.818231911478 0.016128
0.096890570082401 0.0071201855601539 49.394780775028 0.01587403125
0.096890570082401 0.0071201855601539 46.970846524886 0.015620125
0.096890570082401 0.0071201855601539 44.546428745166 0.01536628125
0.096890570082401 0.0071201855601539 42.12152701949 0.0151125
0.096890570082401 0.0071201855601539 39.696140930974 0.01485878125
0.096890570082401 0.0071201855601539 37.270270062231 0.014605125
0.096890570082401 0.0071201855601539 34.843913995373 0.01435153125
0.096890570082401 0.0071201855601539 32.417072312011 0.014098
0.096890570082401 0.0071201855601539 29.989744593254 0.01384453125
0.096890570082401 0.0071201855601539 27.561930419707 0.013591125
0.096890570082401 0.0071201855601539 25.13362937146 0.01333778125
0.096890570082401 0.0071201855601539 22.704841028107 0.0130845
0.096890570082401 0.0071201855601539 20.275564968742 0.01283128125
0.096890570082401 0.0071201855601539 17.845800771931 0.012578125
0.096890570082401 0.0071201855601539 15.415548015756 0.01232503125
0.096890570082401 0.0071201855601539 12.984806277769 0.012072
0.096890570082401 0.0071201855601539 10.553575135027 0.01181903125
0.096890570082401 0.0071201855601539 8.1218541640771 0.011566125
0.096890570082401 0.0071201855601539 5.6896429409444 0.01131328125
0.096890570082401 0.0071201855601539 3.2569410411527 0.0110605
0.096890570082401 0.0071201855601539 0.82374803970997 0.01080778125
0.096890570082401 0.0071201855601539 -1.7830275087029 0.010555125
0.096890570082401 0.0071201855601539 0.82374803971092 0.01080778125
0.096890570082401 0.0071201855601539 3.2569410411511 0.0110605
0.096890570082401 0.0071201855601539 5.6896429409473 0.01131328125
0.096890570082401 0.0071201855601539 8.1218541640788 0.011566125
0.096890570082401 0.0071201855601539 10.55357513503 0.01181903125
0.096890570082401 0.0071201855601539 12.984806277771 0.012072
0.096890570082401 0.0071201855601539 15.415548015756 0.01232503125
0.096890570082401 0.0071201855601539 17.845800771932 0.012578125
0.096890570082401 0.0071201855601539 20.275564968745 0.01283128125
0.096890570082401 0.0071201855601539 22.704841028113 0.0130845
0.096890570082401 0.0071201855601539 25.133629371465 0.01333778125
0.096890570082401 0.0071201855601539 27.561930419713 0.013591125
0.096890570082401 0.0071201855601539 29.989744593259 0.01384453125
0.096890570082401 0.0071201855601539 32.417072312017 0.014098
0.096890570082401 0.0071201855601539 34.84391399538 0.01435153125
0.096890570082401 0.0071201855601539 37.270270062236 0.014605125
0.096890570082401 0.0071201855601539 39.696140930981 0.01485878125
0.096890570082401 0.0071201855601539 42.121527019499 0.0151125
0.096890570082401 0.0071201855601539 44.546428745175 0.01536628125
0.096890570082401 0.0071201855601539 46.970846524896 0.015620125
0.096890570082401 0.0071201855601539 49.394780775038 0.01587403125
0.096890570082401 0.0071201855601539 51.818231911489 0.016128
0.096890570082401 0.0071201855601539 54.241200349633 0.01638203125
0.096890570082401 0.0071201855601539 56.663686504349 0.016636125
0.096890570082401 0.0071201855601539 59.085690790032 0.01689028125
0.096890570082401 0.0071201855601539 61.507213620565 0.0171445
0.096890570082401 0.0071201855601539 63.928255409348 0.01739878125
0.096890570082401 0.0071201855601539 66.348816569278 0.017653125
0.096890570082401 0.0071201855601539 68.768897512754 0.01790753125
0.096890570082401 0.0071201855601539 71.188498651689 0.018162
0.096890570082401 0.0071201855601539 73.6076203975 0.01841653125
0.096890570082401 0.0071201855601539 76.026263161105 0.018671125
0.096890570082401 0.0071201855601539 78.444427352939 0.01892578125
0.096890570082401 0.0071201855601539 80.862113382934 0.0191805
0.096890570082401 0.0071201855601539 83.279321660549 0.01943528125
0.096890570082401 0.0071201855601539 85.696052594733 0.019690125
0.096890570082401 0.0071201855601539 88.112306593958 0.01994503125
0.096890570082401 0.0071201855601539 90.528084066204 0.0202
0.097725929076374 0.007250151393584 89.822716037606 0.02045503125
0.09855504090482 0.0073803082221914 89.130648683698 0.020710125
0.099378031743882 0.0075106521274037 88.451474487754 0.02096528125
0.10019502718222 0.007641179302633 87.784798117274 0.0212205
0.10100614838751 0.0077718860486981 87.130241332341 0.02147578125
0.10181151232587 0.0079027687695165 86.487442028825 0.021731125
0.10261123196788 0.0080338239680006 85.856053346788 0.02198653125
0.10340541648116 0.0081650482421896 85.23574283984 0.022242
0.1041941714116 0.0082964382815561 84.626191699535 0.02249753125
0.10497759885303 0.0084279908635196 84.02709403141 0.022753125
0.10575579760682 0.0085597028501305 83.438156178072 0.02300878125
0.10652886333203 0.0086915711849153 82.859096085827 0.0232645
0.10652886540247 0.0086915711849153 80.78935332589 0.02300878125
0.10652886540247 0.0086915711849153 78.719206546171 0.022753125
0.10652886540247 0.0086915711849153 76.648652760001 0.02249753125
0.10652886540247 0.0086915711849153 74.5776916199 0.022242
0.10652886540247 0.0086915711849153 72.506322777977 0.02198653125
0.10652886540247 0.0086915711849153 70.434545885939 0.021731125
0.10652886540247 0.0086915711849153 68.362360595054 0.02147578125
0.10652886540247 0.0086915711849153 66.289766556188 0.0212205
0.10652886540247 0.0086915711849153 64.216763419786 0.02096528125
0.10652886540247 0.0086915711849153 62.143350835877 0.020710125
0.10652886540247 0.0086915711849153 60.069528454068 0.02045503125
0.10652886540247 0.0086915711849153 57.995295923546 0.0202
0.10652886540247 0.0086915711849153 55.920652893082 0.01994503125
0.10652886540247 0.0086915711849153 53.845599011026 0.019690125
0.10652886540247 0.0086915711849153 51.770133925301 0.01943528125
0.10652886540247 0.0086915711849153 49.69425728342 0.0191805
0.10652886540247 0.0086915711849153 47.617968732463 0.01892578125
0.10652886540247 0.0086915711849153 45.541267919091 0.018671125
0.10652886540247 0.0086915711849153 43.464154489546 0.01841653125
0.10652886540247 0.0086915711849153 41.386628089636 0.018162
0.10652886540247 0.0086915711849153 39.308688364754 0.01790753125
0.10652886540247 0.0086915711849153 37.230334959862 0.017653125
0.10652886540247 0.0086915711849153 35.151567519496 0.01739878125
0.10652886540247 0.0086915711849153 33.072385687772 0.0171445
0.10652886540247 0.0086915711849153 30.992789108371 0.01689028125
0.10652886540247 0.0086915711849153 28.912777424552 0.016636125
0.10652886540247 0.0086915711849153 26.832350279144 0.01638203125
0.10652886540247 0.0086915711849153 24.751507314545 0.016128
0.10652886540247 0.0086915711849153 22.670248172724 0.01587403125
0.10652886540247 0.0086915711849153 20.588572495225 0.015620125
0.10652886540247 0.0086915711849153 18.506479923152 0.01536628125
0.10652886540247 0.0086915711849153 16.423970097188 0.0151125
0.10652886540247 0.0086915711849153 14.341042657578 0.01485878125
0.10652886540247 0.0086915711849153 12.257697244132 0.014605125
0.10652886540247 0.0086915711849153 10.173933496237 0.01435153125
0.10652886540247 0.0086915711849153 8.0897510528334 0.014098
0.10652886540247 0.0086915711849153 6.0051495524358 0.01384453125
0.10652886540247 0.0086915711849153 3.9201286331233 0.013591125
0.10652886540247 0.0086915711849153 1.8346879325322 0.01333778125
0.10652886540247 0.0086915711849153 -0.27889503441478 0.0130845
0.10652886540247 0.0086915711849153 1.8346879325312 0.01333778125
0.10652886540247 0.0086915711849153 3.920128633121 0.013591125
0.10652886540247 0.0086915711849153 6.0051495524317 0.01384453125
0.10652886540247 0.0086915711849153 8.0897510528302 0.014098
0.10652886540247 0.0086915711849153 10.173933496233 0.01435153125
0.10652886540247 0.0086915711849153 12.257697244129 0.014605125
0.10652886540247 0.0086915711849153 14.341042657576 0.01485878125
0.10652886540247 0.0086915711849153 16.423970097186 0.0151125
0.10652886540247 0.0086915711849153 18.506479923149 0.01536628125
0.10652886540247 0.0086915711849153 20.588572495222 0.015620125
0.10652886540247 0.0086915711849153 22.670248172722 0.01587403125
0.10652886540247 0.0086915711849153 24.751507314542 0.016128
0.10652886540247 0.0086915711849153 26.832350279143 0.01638203125
0.10652886540247 0.0086915711849153 28.912777424551 0.016636125
0.10652886540247 0.0086915711849153 30.992789108372 0.01689028125
0.10652886540247 0.0086915711849153 33.072385687774 0.0171445
0.10652886540247 0.0086915711849153 35.151567519498 0.01739878125
0.10652886540247 0.0086915711849153 37.230334959864 0.017653125
0.10652886540247 0.0086915711849153 39.308688364757 0.01790753125
0.10652886540247 0.0086915711849153 41.386628089642 0.018162
0.10652886540247 0.0086915711849153 43.464154489551 0.01841653125
0.10652886540247 0.0086915711849153 45.541267919096 0.018671125
0.10652886540247 0.0086915711849153 47.61796873247 0.01892578125
0.10652886540247 0.0086915711849153 49.694257283424 0.0191805
0.10652886540247 0.0086915711849153 51.770133925305 0.01943528125
0.10652886540247 0.0086915711849153 53.845599011028 0.019690125
0.10652886540247 0.0086915711849153 55.920652893085 0.01994503125
0.10652886540247 0.0086915711849153 57.995295923548 0.0202
0.10652886540247 0.0086915711849153 60.069528454071 0.02045503125
0.10652886540247 0.0086915711849153 62.143350835881 0.020710125
0.10652886540247 0.0086915711849153 64.216763419791 0.02096528125
0.10652886540247 0.0086915711849153 66.28976655619 0.0212205
0.10652886540247 0.0086915711849153 68.362360595057 0.02147578125
0.10652886540247 0.0086915711849153 70.434545885943 0.021731125
0.10652886540247 0.0086915711849153 72.506322777984 0.02198653125
0.10652886540247 0.0086915711849153 74.577691619905 0.022242
0.10652886540247 0.0086915711849153 76.648652760008 0.02249753125
0.10652886540247 0.0086915711849153 78.719206546178 0.022753125
0.10652886540247 0.0086915711849153 80.789353325897 0.02300878125
0.10652886540247 0.0086915711849153 82.859093446217 0.0232645
0.10729688868686 0.008823592889876 82.289642711435 0.02352028125
0.10805996346194 0.0089557650626241 81.729535466084 0.023776125
0.10881817470536 0.009088084873692 81.178523694341 0.02403203125
0.10957160684217 0.0092205495639 80.636366183823 0.024288
0.11032034178528 0.0093531564419252 80.10283070598 0.02454403125
0.11106445904188 0.0094859028819222 79.577693583163 0.024800125
0.11180403581324 0.0096187863212845 79.060739281879 0.02505628125
0.1125391402207 0.0097518045273344 78.551765012885 0.0253125
0.11326985917733 0.0098849545078077 78.050560171769 0.02556878125
0.11399625632492 0.010018234158808 77.556936708756 0.025825125
0.11471840054091 0.010151641150076 77.070708047482 0.02608153125
0.11543635882339 0.010285173204754 76.591694046483 0.026338
0.11543636455432 0.010285173204754 74.78706606061 0.02608153125
0.11543636455432 0.010285173204754 72.982091357803 0.025825125
0.11543636455432 0.010285173204754 71.176763155979 0.02556878125
0.11543636455432 0.010285173204754 69.371081154295 0.0253125
0.11543636455432 0.010285173204754 67.565045051553 0.02505628125
0.11543636455432 0.010285173204754 65.758654546188 0.024800125
0.11543636455432 0.010285173204754 63.951909336282 0.02454403125
0.11543636455432 0.010285173204754 62.144809119557 0.024288
0.11543636455432 0.010285173204754 60.337353593368 0.02403203125
0.11543636455432 0.010285173204754 58.529542454723 0.023776125
0.11543636455432 0.010285173204754 56.721375400251 0.02352028125
0.11543636455432 0.010285173204754 54.912852126231 0.0232645
0.11543636455432 0.010285173204754 53.103972328579 0.02300878125
0.11543636455432 0.010285173204754 51.29473570284 0.022753125
0.11543636455432 0.010285173204754 49.485141944208 0.02249753125
0.11543636455432 0.010285173204754 47.675190747501 0.022242
0.11543636455432 0.010285173204754 45.864881807178 0.02198653125
0.11543636455432 0.010285173204754 44.054214817335 0.021731125
0.11543636455432 0.010285173204754 42.243189471699 0.02147578125
0.11543636455432 0.010285173204754 40.431805463629 0.0212205
0.11543636455432 0.010285173204754 38.620062486126 0.02096528125
0.11543636455432 0.010285173204754 36.807960231813 0.020710125
0.11543636455432 0.010285173204754 34.995498392954 0.02045503125
0.11543636455432 0.010285173204754 33.18267666144 0.0202
0.11543636455432 0.010285173204754 31.369494728795 0.01994503125
0.11543636455432 0.010285173204754 29.555952286178 0.019690125
0.11543636455432 0.010285173204754 27.742049024367 0.01943528125
0.11543636455432 0.010285173204754 25.927784633783 0.0191805
0.11543636455432 0.010285173204754 24.113158804471 0.01892578125
0.11543636455432 0.010285173204754 22.298171226096 0.018671125
0.11543636455432 0.010285173204754 20.482821587965 0.01841653125
0.11543636455432 0.010285173204754 18.667109579006 0.018162
0.11543636455432 0.010285173204754 16.851034887771 0.01790753125
0.11543636455432 0.010285173204754 15.034597202452 0.017653125
0.11543636455432 0.010285173204754 13.217796210848 0.01739878125
0.11543636455432 0.010285173204754 11.400631600397 0.0171445
0.11543636455432 0.010285173204754 9.5831030581602 0.01689028125
0.11543636455432 0.010285173204754 7.7652102708132 0.016636125
0.11543636455432 0.010285173204754 5.9469529246739 0.01638203125
0.11543636455432 0.010285173204754 4.1283307056653 0.016128
0.11543636455432 0.010285173204754 2.3093432993457 0.01587403125
0.11543636455432 0.010285173204754 0.48999039089123 0.015620125
0.11543636455432 0.010285173204754 -1.4792857138716 0.01536628125
0.11543636455432 0.010285173204754 0.489990390891 0.015620125
0.11543636455432 0.010285173204754 2.3093432993455 0.01587403125
0.11543636455432 0.010285173204754 4.1283307056653 0.016128
0.11543636455432 0.010285173204754 5.9469529246723 0.01638203125
0.11543636455432 0.010285173204754 7.7652102708111 0.016636125
0.11543636455432 0.010285173204754 9.5831030581573 0.01689028125
0.11543636455432 0.010285173204754 11.400631600394 0.0171445
0.11543636455432 0.010285173204754 13.217796210845 0.01739878125
0.11543636455432 0.010285173204754 15.034597202449 0.017653125
0.11543636455432 0.010285173204754 16.85103488777 0.01790753125
0.11543636455432 0.010285173204754 18.667109579003 0.018162
0.11543636455432 0.010285173204754 20.482821587962 0.01841653125
0.11543636455432 0.010285173204754 22.298171226091 0.018671125
0.11543636455432 0.010285173204754 24.113158804465 0.01892578125
0.11543636455432 0.010285173204754 25.92778463378 0.0191805
0.11543636455432 0.010285173204754 27.742049024364 0.01943528125
0.11543636455432 0.010285173204754 29.555952286174 0.019690125
0.11543636455432 0.010285173204754 31.369494728793 0.01994503125
0.11543636455432 0.010285173204754 33.182676661437 0.0202
0.11543636455432 0.010285173204754 34.99549839295 0.02045503125
0.11543636455432 0.010285173204754 36.807960231808 0.020710125
0.11543636455432 0.010285173204754 38.62006248612 0.02096528125
0.11543636455432 0.010285173204754 40.431805463623 0.0212205
0.11543636455432 0.010285173204754 42.243189471692 0.02147578125
0.11543636455432 0.010285173204754 44.05421481733 0.021731125
0.11543636455432 0.010285173204754 45.864881807172 0.02198653125
0.11543636455432 0.010285173204754 47.675190747494 0.022242
0.11543636455432 0.010285173204754 49.485141944202 0.02249753125
0.11543636455432 0.010285173204754 51.294735702834 0.022753125
0.11543636455432 0.010285173204754 53.103972328572 0.02300878125
0.11543636455432 0.010285173204754 54.912852126224 0.0232645
0.11543636455432 0.010285173204754 56.721375400244 0.02352028125
0.11543636455432 0.010285173204754 58.529542454716 0.023776125
0.11543636455432 0.010285173204754 60.337353593363 0.02403203125
0.11543636455432 0.010285173204754 62.14480911955 0.024288
0.11543636455432 0.010285173204754 63.951909336277 0.02454403125
0.11543636455432 0.010285173204754 65.758654546183 0.024800125
0.11543636455432 0.010285173204754 67.565045051548 0.02505628125
0.11543636455432 0.010285173204754 69.371081154293 0.0253125
0.11543636455432 0.010285173204754 71.176763155976 0.02556878125
0.11543636455432 0.010285173204754 72.982091357801 0.025825125
0.11543636455432 0.010285173204754 74.787066060608 0.02608153125
0.11543636455432 0.010285173204754 76.591687564886 0.026338
0.11615019636275 0.010418828097702 76.119720713309 0.02659453125
0.11685997661543 0.01055260365367 75.654619930325 0.026851125
0.11756576136216 0.010686497746006 75.196229203589 0.02710778125
0.11826761077543 0.010820508294946 74.744391416771 0.0273645
0.11896558347775 0.010954633266207 74.298954602185 0.02762128125
0.11965973659829 0.011088870669594 73.859771723133 0.027878125
0.12035012582661 0.011223218557669 73.426700467555 0.02813503125
0.12103680546433 0.011357675024459 72.999603052066 0.028392
0.12171982847409 0.011492238204222 72.578346036133 0.02864903125
0.12239924652655 0.011626906270257 72.162800145435 0.028906125
0.12307511004465 0.011761677433778 71.752840104395 0.02916328125
0.1237474682469 0.011896549942794 71.34834447639 0.0294205
0.12374747165536 0.011896549942794 69.75305886511 0.02916328125
0.12374747165536 0.011896549942794 68.157465675233 0.028906125
0.12374747165536 0.011896549942794 66.561561181371 0.02864903125
0.12374747165536 0.011896549942794 64.965345119413 0.028392
0.12374747165536 0.011896549942794 63.368817224944 0.02813503125
0.12374747165536 0.011896549942794 61.77197723323 0.027878125
0.12374747165536 0.011896549942794 60.174824879222 0.02762128125
0.12374747165536 0.011896549942794 58.577359897559 0.0273645
0.12374747165536 0.011896549942794 56.979582022566 0.02710778125
0.12374747165536 0.011896549942794 55.381490988241 0.026851125
0.12374747165536 0.011896549942794 53.78308652828 0.02659453125
0.12374747165536 0.011896549942794 52.184368376052 0.026338
0.12374747165536 0.011896549942794 50.585336264614 0.02608153125
0.12374747165536 0.011896549942794 48.985989926707 0.025825125
0.12374747165536 0.011896549942794 47.386329094746 0.02556878125
0.12374747165536 0.011896549942794 45.786353500833 0.0253125
0.12374747165536 0.011896549942794 44.186062876754 0.02505628125
0.12374747165536 0.011896549942794 42.585456953968 0.024800125
0.12374747165536 0.011896549942794 40.984535463619 0.02454403125
0.12374747165536 0.011896549942794 39.383298136527 0.024288
0.12374747165536 0.011896549942794 37.781744703195 0.02403203125
0.12374747165536 0.011896549942794 36.179874893804 0.023776125
0.12374747165536 0.011896549942794 34.577688438212 0.02352028125
0.12374747165536 0.011896549942794 32.975185065955 0.0232645
0.12374747165536 0.011896549942794 31.372364506246 0.02300878125
0.12374747165536 0.011896549942794 29.769226487974 0.022753125
0.12374747165536 0.011896549942794 28.165770739709 0.02249753125
0.12374747165536 0.011896549942794 26.561996989692 0.022242
0.12374747165536 0.011896549942794 24.957904965841 0.02198653125
0.12374747165536 0.011896549942794 23.353494395749 0.021731125
0.12374747165536 0.011896549942794 21.748765006683 0.02147578125
0.12374747165536 0.011896549942794 20.143716525587 0.0212205
0.12374747165536 0.011896549942794 18.538348679077 0.02096528125
0.12374747165536 0.011896549942794 16.932661193437 0.020710125
0.12374747165536 0.011896549942794 15.326653794636 0.02045503125
0.12374747165536 0.011896549942794 13.720326208302 0.0202
0.12374747165536 0.011896549942794 12.113678159742 0.01994503125
0.12374747165536 0.011896549942794 10.506709373934 0.019690125
0.12374747165536 0.011896549942794 8.8994195755233 0.01943528125
0.12374747165536 0.011896549942794 7.2918084888279 0.0191805
0.12374747165536 0.011896549942794 5.683875837841 0.01892578125
0.12374747165536 0.011896549942794 4.0756213462136 0.018671125
0.12374747165536 0.011896549942794 2.4670447372757 0.01841653125
0.12374747165536 0.011896549942794 0.8581457340212 0.018162
0.12374747165536 0.011896549942794 -0.83685649164035 0.01790753125
0.12374747165536 0.011896549942794 0.85814573402195 0.018162
0.12374747165536 0.011896549942794 2.4670447372763 0.01841653125
0.12374747165536 0.011896549942794 4.0756213462127 0.018671125
0.12374747165536 0.011896549942794 5.6838758378377 0.01892578125
0.12374747165536 0.011896549942794 7.2918084888259 0.0191805
0.12374747165536 0.011896549942794 8.8994195755213 0.01943528125
0.12374747165536 0.011896549942794 10.506709373931 0.019690125
0.12374747165536 0.011896549942794 12.113678159739 0.01994503125
0.12374747165536 0.011896549942794 13.7203262083 0.0202
0.12374747165536 0.011896549942794 15.326653794635 0.02045503125
0.12374747165536 0.011896549942794 16.932661193436 0.020710125
0.12374747165536 0.011896549942794 18.538348679075 0.02096528125
0.12374747165536 0.011896549942794 20.143716525584 0.0212205
0.12374747165536 0.011896549942794 21.74876500668 0.02147578125
0.12374747165536 0.011896549942794 23.353494395746 0.021731125
0.12374747165536 0.011896549942794 24.957904965836 0.02198653125
0.12374747165536 0.011896549942794 26.561996989688 0.022242
0.12374747165536 0.011896549942794 28.165770739707 0.02249753125
0.12374747165536 0.011896549942794 29.769226487971 0.022753125
0.12374747165536 0.011896549942794 31.372364506242 0.02300878125
0.12374747165536 0.011896549942794 32.975185065952 0.0232645
0.12374747165536 0.011896549942794 34.577688438208 0.02352028125
0.12374747165536 0.011896549942794 36.179874893804 0.023776125
0.12374747165536 0.011896549942794 37.781744703192 0.02403203125
0.12374747165536 0.011896549942794 39.383298136524 0.024288
0.12374747165536 0.011896549942794 40.984535463615 0.02454403125
0.12374747165536 0.011896549942794 42.585456953965 0.024800125
0.12374747165536 0.011896549942794 44.186062876753 0.02505628125
0.12374747165536 0.011896549942794 45.78635350083 0.0253125
0.12374747165536 0.011896549942794 47.386329094744 0.02556878125
0.12374747165536 0.011896549942794 48.985989926706 0.025825125
0.12374747165536 0.011896549942794 50.585336264613 0.02608153125
0.12374747165536 0.011896549942794 52.184368376051 0.026338
0.12374747165536 0.011896549942794 53.783086528278 0.02659453125
0.12374747165536 0.011896549942794 55.381490988239 0.026851125
0.12374747165536 0.011896549942794 56.979582022565 0.02710778125
0.12374747165536 0.011896549942794 58.57735989756 0.0273645
0.12374747165536 0.011896549942794 60.174824879222 0.02762128125
0.12374747165536 0.011896549942794 61.77197723323 0.027878125
0.12374747165536 0.011896549942794 63.368817224945 0.02813503125
0.12374747165536 0.011896549942794 64.965345119412 0.028392
0.12374747165536 0.011896549942794 66.561561181368 0.02864903125
0.12374747165536 0.011896549942794 68.157465675232 0.028906125
0.12374747165536 0.011896549942794 69.753058865108 0.02916328125
0.12374747165536 0.011896549942794 71.348341014787 0.0294205
0.12441636918794 0.012031522081066 70.949195512208 0.02967778125
0.1250818597975 0.012166592167091 70.55527900583 0.029935125
0.12574398591794 0.012301758553115 70.166484156846 0.03019253125
0.12640279233997 0.012437019624195 69.782703439652 0.03045
0.12705832283688 0.012572373797285 69.403832478719 0.03070753125
0.12771062019708 0.012707819520372 69.029769929844 0.030965125
0.12835972625599 0.012843355271616 68.660417366493 0.03122278125
0.12900568192596 0.012978979558537 68.295679171715 0.0314805
0.12964852722512 0.013114690917239 67.935462434905 0.03173828125
0.13028830130512 0.013250487911642 67.579676853144 0.031996125
0.13092504247792 0.013386369132751 67.228234636888 0.03225403125
0.13155878824109 0.013522333197952 66.881050420036 0.032512
0.13155879033372 0.013522333197952 65.455040758658 0.03225403125
0.13155879033372 0.013522333197952 64.028756029727 0.031996125
0.13155879033372 0.013522333197952 62.602194071602 0.03173828125
0.13155879033372 0.013522333197952 61.17535464982 0.0314805
0.13155879033372 0.013522333197952 59.748237529633 0.03122278125
0.13155879033372 0.013522333197952 58.320842476019 0.030965125
0.13155879033372 0.013522333197952 56.893169253682 0.03070753125
0.13155879033372 0.013522333197952 55.465217627038 0.03045
0.13155879033372 0.013522333197952 54.036987360232 0.03019253125
0.13155879033372 0.013522333197952 52.608478217122 0.029935125
0.13155879033372 0.013522333197952 51.179689961292 0.02967778125
0.13155879033372 0.013522333197952 49.750622356045 0.0294205
0.13155879033372 0.013522333197952 48.321275164399 0.02916328125
0.13155879033372 0.013522333197952 46.891648149093 0.028906125
0.13155879033372 0.013522333197952 45.461741072586 0.02864903125
0.13155879033372 0.013522333197952 44.031553697054 0.028392
0.13155879033372 0.013522333197952 42.601085784388 0.02813503125
0.13155879033372 0.013522333197952 41.170337096202 0.027878125
0.13155879033372 0.013522333197952 39.739307393818 0.02762128125
0.13155879033372 0.013522333197952 38.307996438285 0.0273645
0.13155879033372 0.013522333197952 36.87640399036 0.02710778125
0.13155879033372 0.013522333197952 35.444529810518 0.026851125
0.13155879033372 0.013522333197952 34.012373658951 0.02659453125
0.13155879033372 0.013522333197952 32.579935295561 0.026338
0.13155879033372 0.013522333197952 31.147214479972 0.02608153125
0.13155879033372 0.013522333197952 29.714210971515 0.025825125
0.13155879033372 0.013522333197952 28.280924529237 0.02556878125
0.13155879033372 0.013522333197952 26.847354911898 0.0253125
0.13155879033372 0.013522333197952 25.413501877973 0.02505628125
0.13155879033372 0.013522333197952 23.979365185646 0.024800125
0.13155879033372 0.013522333197952 22.544944592816 0.02454403125
0.13155879033372 0.013522333197952 21.110239857087 0.024288
0.13155879033372 0.013522333197952 19.675250735784 0.02403203125
0.13155879033372 0.013522333197952 18.239976985936 0.023776125
0.13155879033372 0.013522333197952 16.804418364285 0.02352028125
0.13155879033372 0.013522333197952 15.36857462728 0.0232645
0.13155879033372 0.013522333197952 13.932445531085 0.02300878125
0.13155879033372 0.013522333197952 12.496030831567 0.022753125
0.13155879033372 0.013522333197952 11.059330284302 0.02249753125
0.13155879033372 0.013522333197952 9.6223436445811 0.022242
0.13155879033372 0.013522333197952 8.1850706673969 0.02198653125
0.13155879033372 0.013522333197952 6.7475111074511 0.021731125
0.13155879033372 0.013522333197952 5.3096647191516 0.02147578125
0.13155879033372 0.013522333197952 3.8715312566159 0.0212205
0.13155879033372 0.013522333197952 2.4331104736633 0.02096528125
0.13155879033372 0.013522333197952 0.99440212382329 0.020710125
0.13155879033372 0.013522333197952 -0.49599591167415 0.02045503125
0.13155879033372 0.013522333197952 0.99440212382213 0.020710125
0.13155879033372 0.013522333197952 2.4331104736643 0.02096528125
0.13155879033372 0.013522333197952 3.8715312566157 0.0212205
0.13155879033372 0.013522333197952 5.3096647191522 0.02147578125
0.13155879033372 0.013522333197952 6.7475111074516 0.021731125
0.13155879033372 0.013522333197952 8.185070667397 0.02198653125
0.13155879033372 0.013522333197952 9.6223436445804 0.022242
0.13155879033372 0.013522333197952 11.059330284301 0.02249753125
0.13155879033372 0.013522333197952 12.496030831564 0.022753125
0.13155879033372 0.013522333197952 13.932445531084 0.02300878125
0.13155879033372 0.013522333197952 15.368574627278 0.0232645
0.13155879033372 0.013522333197952 16.804418364282 0.02352028125
0.13155879033372 0.013522333197952 18.239976985935 0.023776125
0.13155879033372 0.013522333197952 19.675250735782 0.02403203125
0.13155879033372 0.013522333197952 21.110239857085 0.024288
0.13155879033372 0.013522333197952 22.544944592814 0.02454403125
0.13155879033372 0.013522333197952 23.979365185645 0.024800125
0.13155879033372 0.013522333197952 25.413501877973 0.02505628125
0.13155879033372 0.013522333197952 26.847354911898 0.0253125
0.13155879033372 0.013522333197952 28.280924529237 0.02556878125
0.13155879033372 0.013522333197952 29.714210971516 0.025825125
0.13155879033372 0.013522333197952 31.147214479972 0.02608153125
0.13155879033372 0.013522333197952 32.579935295561 0.026338
0.13155879033372 0.013522333197952 34.01237365895 0.02659453125
0.13155879033372 0.013522333197952 35.444529810515 0.026851125
0.13155879033372 0.013522333197952 36.876403990358 0.02710778125
0.13155879033372 0.013522333197952 38.307996438281 0.0273645
0.13155879033372 0.013522333197952 39.739307393815 0.02762128125
0.13155879033372 0.013522333197952 41.170337096197 0.027878125
0.13155879033372 0.013522333197952 42.601085784383 0.02813503125
0.13155879033372 0.013522333197952 44.031553697048 0.028392
0.13155879033372 0.013522333197952 45.461741072581 0.02864903125
0.13155879033372 0.013522333197952 46.891648149089 0.028906125
0.13155879033372 0.013522333197952 48.321275164393 0.02916328125
0.13155879033372 0.013522333197952 49.750622356041 0.0294205
0.13155879033372 0.013522333197952 51.179689961288 0.02967778125
0.13155879033372 0.013522333197952 52.608478217117 0.029935125
0.13155879033372 0.013522333197952 54.036987360226 0.03019253125
0.13155879033372 0.013522333197952 55.465217627033 0.03045
0.13155879033372 0.013522333197952 56.893169253677 0.03070753125
0.13155879033372 0.013522333197952 58.320842476015 0.030965125
0.13155879033372 0.013522333197952 59.748237529628 0.03122278125
0.13155879033372 0.013522333197952 61.175354649812 0.0314805
0.13155879033372 0.013522333197952 62.602194071596 0.03173828125
0.13155879033372 0.013522333197952 64.028756029722 0.031996125
0.13155879033372 0.013522333197952 65.455040758653 0.03225403125
0.13155879033372 0.013522333197952 66.88104849258 0.032512
0.13218957530274 0.013658378750316 66.538041173639 0.03277003125
0.13281743960474 0.013794504457958 66.199126123729 0.033028125
0.13344241634572 0.013930709013377 65.864226672349 0.03328628125
0.13406454000274 0.014066991132852 65.533266322191 0.0335445
0.13468384435226 0.014203349555843 65.206170604384 0.03380278125
0.13530036249043 0.01433978304441 64.882867009242 0.034061125
0.13591412685262 0.014476290382652 64.563284919928 0.03431953125
0.13652516923192 0.014612870376171 64.247355549002 0.034578
0.13713352079742 0.014749521851543 63.935011877375 0.03483653125
0.13773921211149 0.014886243655816 63.626188595886 0.035095125
0.13834227314651 0.015023034656014 63.320822049236 0.03535378125
0.13894273330113 0.015159893738662 63.018850182071 0.0356125
0.1389427346225 0.015159893738662 61.732384179054 0.03535378125
0.1389427346225 0.015159893738662 60.445670322467 0.035095125
0.1389427346225 0.015159893738662 59.158707289518 0.03483653125
0.1389427346225 0.015159893738662 57.871494870121 0.034578
0.1389427346225 0.015159893738662 56.584032853933 0.03431953125
0.1389427346225 0.015159893738662 55.296321030373 0.034061125
0.1389427346225 0.015159893738662 54.008359188603 0.03380278125
0.1389427346225 0.015159893738662 52.720147117541 0.0335445
0.1389427346225 0.015159893738662 51.431684605851 0.03328628125
0.1389427346225 0.015159893738662 50.14297144195 0.033028125
0.1389427346225 0.015159893738662 48.854007414003 0.03277003125
0.1389427346225 0.015159893738662 47.564792309929 0.032512
0.1389427346225 0.015159893738662 46.275325917388 0.03225403125
0.1389427346225 0.015159893738662 44.985608023798 0.031996125
0.1389427346225 0.015159893738662 43.695638416318 0.03173828125
0.1389427346225 0.015159893738662 42.40541688186 0.0314805
0.1389427346225 0.015159893738662 41.114943207081 0.03122278125
0.1389427346225 0.015159893738662 39.824217178384 0.030965125
0.1389427346225 0.015159893738662 38.533238581924 0.03070753125
0.1389427346225 0.015159893738662 37.242007203595 0.03045
0.1389427346225 0.015159893738662 35.950522829046 0.03019253125
0.1389427346225 0.015159893738662 34.658785243668 0.029935125
0.1389427346225 0.015159893738662 33.366794232596 0.02967778125
0.1389427346225 0.015159893738662 32.074549580708 0.0294205
0.1389427346225 0.015159893738662 30.782051072637 0.02916328125
0.1389427346225 0.015159893738662 29.489298492748 0.028906125
0.1389427346225 0.015159893738662 28.19629162516 0.02864903125
0.1389427346225 0.015159893738662 26.903030253728 0.028392
0.1389427346225 0.015159893738662 25.609514162056 0.02813503125
0.1389427346225 0.015159893738662 24.315743133489 0.027878125
0.1389427346225 0.015159893738662 23.021716951115 0.02762128125
0.1389427346225 0.015159893738662 21.727435397761 0.0273645
0.1389427346225 0.015159893738662 20.432898256004 0.02710778125
0.1389427346225 0.015159893738662 19.138105308154 0.026851125
0.1389427346225 0.015159893738662 17.843056336266 0.02659453125
0.1389427346225 0.015159893738662 16.547751122137 0.026338
0.1389427346225 0.015159893738662 15.2521894473 0.02608153125
0.1389427346225 0.015159893738662 13.956371093036 0.025825125
0.1389427346225 0.015159893738662 12.660295840356 0.02556878125
0.1389427346225 0.015159893738662 11.363963470021 0.0253125
0.1389427346225 0.015159893738662 10.06737376252 0.02505628125
0.1389427346225 0.015159893738662 8.7705264980875 0.024800125
0.1389427346225 0.015159893738662 7.4734214566958 0.02454403125
0.1389427346225 0.015159893738662 6.1760584180519 0.024288
0.1389427346225 0.015159893738662 4.8784371616032 0.02403203125
0.1389427346225 0.015159893738662 3.5805574665359 0.023776125
0.1389427346225 0.015159893738662 2.2824191117662 0.02352028125
0.1389427346225 0.015159893738662 0.98402187595498 0.0232645
0.1389427346225 0.015159893738662 -0.35137455747691 0.02300878125
0.1389427346225 0.015159893738662 0.98402187595538 0.0232645
0.1389427346225 0.015159893738662 2.2824191117673 0.02352028125
0.1389427346225 0.015159893738662 3.5805574665358 0.023776125
0.1389427346225 0.015159893738662 4.8784371616033 0.02403203125
0.1389427346225 0.015159893738662 6.1760584180509 0.024288
0.1389427346225 0.015159893738662 7.4734214566937 0.02454403125
0.1389427346225 0.015159893738662 8.7705264980844 0.024800125
0.1389427346225 0.015159893738662 10.067373762517 0.02505628125
0.1389427346225 0.015159893738662 11.363963470019 0.0253125
0.1389427346225 0.015159893738662 12.660295840356 0.02556878125
0.1389427346225 0.015159893738662 13.956371093036 0.025825125
0.1389427346225 0.015159893738662 15.252189447298 0.02608153125
0.1389427346225 0.015159893738662 16.547751122134 0.026338
0.1389427346225 0.015159893738662 17.843056336264 0.02659453125
0.1389427346225 0.015159893738662 19.13810530815 0.026851125
0.1389427346225 0.015159893738662 20.432898255999 0.02710778125
0.1389427346225 0.015159893738662 21.727435397758 0.0273645
0.1389427346225 0.015159893738662 23.021716951111 0.02762128125
0.1389427346225 0.015159893738662 24.315743133484 0.027878125
0.1389427346225 0.015159893738662 25.609514162051 0.02813503125
0.1389427346225 0.015159893738662 26.903030253723 0.028392
0.1389427346225 0.015159893738662 28.196291625155 0.02864903125
0.1389427346225 0.015159893738662 29.489298492744 0.028906125
0.1389427346225 0.015159893738662 30.782051072633 0.02916328125
0.1389427346225 0.015159893738662 32.074549580704 0.0294205
0.1389427346225 0.015159893738662 33.366794232591 0.02967778125
0.1389427346225 0.015159893738662 34.658785243664 0.029935125
0.1389427346225 0.015159893738662 35.950522829043 0.03019253125
0.1389427346225 0.015159893738662 37.242007203591 0.03045
0.1389427346225 0.015159893738662 38.533238581919 0.03070753125
0.1389427346225 0.015159893738662 39.824217178378 0.030965125
0.1389427346225 0.015159893738662 41.114943207073 0.03122278125
0.1389427346225 0.015159893738662 42.405416881853 0.0314805
0.1389427346225 0.015159893738662 43.695638416312 0.03173828125
0.1389427346225 0.015159893738662 44.985608023792 0.031996125
0.1389427346225 0.015159893738662 46.275325917382 0.03225403125
0.1389427346225 0.015159893738662 47.564792309921 0.032512
0.1389427346225 0.015159893738662 48.854007413995 0.03277003125
0.1389427346225 0.015159893738662 50.142971441941 0.033028125
0.1389427346225 0.015159893738662 51.431684605843 0.03328628125
0.1389427346225 0.015159893738662 52.720147117532 0.0335445
0.1389427346225 0.015159893738662 54.008359188596 0.03380278125
0.1389427346225 0.015159893738662 55.296321030366 0.034061125
0.1389427346225 0.015159893738662 56.584032853925 0.03431953125
0.1389427346225 0.015159893738662 57.871494870111 0.034578
0.1389427346225 0.015159893738662 59.158707289509 0.03483653125
0.1389427346225 0.015159893738662 60.445670322457 0.035095125
0.1389427346225 0.015159893738662 61.732384179045 0.03535378125
0.1389427346225 0.015159893738662 63.018849069114 0.0356125
0.13954062141585 0.015296819809321 62.720212487332 0.03587128125
0.14013596578802 0.01543381179215 62.424849956573 0.036130125
0.14072879418631 0.015570868629463 62.132705032329 0.03638903125
0.14131913386494 0.015707989281308 61.843721562114 0.036648
0.14190701157703 0.015845172725063 61.55784475446 0.03690703125
0.14249245358757 0.015982417955048 61.275021136611 0.037166125
0.14307548568648 0.016119723982117 60.99519851349 0.03742528125
0.14365613320032 0.016257089833311 60.718325928755 0.0376845
0.14423442100445 0.016394514551481 60.444353626858 0.03794378125
0.1448103735343 0.016531997194937 60.173233016774 0.038203125
0.14538401479646 0.016669536837112 59.904916636966 0.03846253125
0.14595536837932 0.016807132566226 59.639358121707 0.038722
0.14595536923479 0.016807132566226 58.46977846773 0.03846253125
0.14595536923479 0.016807132566226 57.299973957247 0.038203125
0.14595536923479 0.016807132566226 56.129943737241 0.03794378125
0.14595536923479 0.016807132566226 54.959687617992 0.0376845
0.14595536923479 0.016807132566226 53.789205409558 0.03742528125
0.14595536923479 0.016807132566226 52.618496921772 0.037166125
0.14595536923479 0.016807132566226 51.447561964242 0.03690703125
0.14595536923479 0.016807132566226 50.276400346356 0.036648
0.14595536923479 0.016807132566226 49.105011877271 0.03638903125
0.14595536923479 0.016807132566226 47.933396365924 0.036130125
0.14595536923479 0.016807132566226 46.761553621026 0.03587128125
0.14595536923479 0.016807132566226 45.589483451059 0.0356125
0.14595536923479 0.016807132566226 44.417185664285 0.03535378125
0.14595536923479 0.016807132566226 43.244660068734 0.035095125
0.14595536923479 0.016807132566226 42.071906472214 0.03483653125
0.14595536923479 0.016807132566226 40.898924682299 0.034578
0.14595536923479 0.016807132566226 39.725714506346 0.03431953125
0.14595536923479 0.016807132566226 38.552275751478 0.034061125
0.14595536923479 0.016807132566226 37.37860822459 0.03380278125
0.14595536923479 0.016807132566226 36.204711732351 0.0335445
0.14595536923479 0.016807132566226 35.030586081201 0.03328628125
0.14595536923479 0.016807132566226 33.856231077351 0.033028125
0.14595536923479 0.016807132566226 32.681646526781 0.03277003125
0.14595536923479 0.016807132566226 31.506832235247 0.032512
0.14595536923479 0.016807132566226 30.331788008269 0.03225403125
0.14595536923479 0.016807132566226 29.156513651142 0.031996125
0.14595536923479 0.016807132566226 27.981008968925 0.03173828125
0.14595536923479 0.016807132566226 26.805273766452 0.0314805
0.14595536923479 0.016807132566226 25.629307848323 0.03122278125
0.14595536923479 0.016807132566226 24.453111018906 0.030965125
0.14595536923479 0.016807132566226 23.276683082341 0.03070753125
0.14595536923479 0.016807132566226 22.100023842531 0.03045
0.14595536923479 0.016807132566226 20.92313310315 0.03019253125
0.14595536923479 0.016807132566226 19.746010667638 0.029935125
0.14595536923479 0.016807132566226 18.568656339203 0.02967778125
0.14595536923479 0.016807132566226 17.391069920818 0.0294205
0.14595536923479 0.016807132566226 16.213251215224 0.02916328125
0.14595536923479 0.016807132566226 15.035200024928 0.028906125
0.14595536923479 0.016807132566226 13.856916152201 0.02864903125
0.14595536923479 0.016807132566226 12.678399399081 0.028392
0.14595536923479 0.016807132566226 11.49964956737 0.02813503125
0.14595536923479 0.016807132566226 10.320666458637 0.027878125
0.14595536923479 0.016807132566226 9.1414498742102 0.02762128125
0.14595536923479 0.016807132566226 7.9619996151891 0.0273645
0.14595536923479 0.016807132566226 6.7823154824284 0.02710778125
0.14595536923479 0.016807132566226 5.6023972765543 0.026851125
0.14595536923479 0.016807132566226 4.4222447979531 0.02659453125
0.14595536923479 0.016807132566226 3.2418578467688 0.026338
0.14595536923479 0.016807132566226 2.0612362229138 0.02608153125
0.14595536923479 0.016807132566226 0.88037972606446 0.025825125
0.14595536923479 0.016807132566226 -0.3361158860664 0.02556878125
0.14595536923479 0.016807132566226 0.88037972606436 0.025825125
0.14595536923479 0.016807132566226 2.0612362229141 0.02608153125
0.14595536923479 0.016807132566226 3.2418578467688 0.026338
0.14595536923479 0.016807132566226 4.4222447979533 0.02659453125
0.14595536923479 0.016807132566226 5.6023972765561 0.026851125
0.14595536923479 0.016807132566226 6.7823154824314 0.02710778125
0.14595536923479 0.016807132566226 7.9619996151904 0.0273645
0.14595536923479 0.016807132566226 9.1414498742117 0.02762128125
0.14595536923479 0.016807132566226 10.320666458639 0.027878125
0.14595536923479 0.016807132566226 11.499649567373 0.02813503125
0.14595536923479 0.016807132566226 12.678399399085 0.028392
0.14595536923479 0.016807132566226 13.856916152204 0.02864903125
0.14595536923479 0.016807132566226 15.03520002493 0.028906125
0.14595536923479 0.016807132566226 16.213251215227 0.02916328125
0.14595536923479 0.016807132566226 17.39106992082 0.0294205
0.14595536923479 0.016807132566226 18.568656339205 0.02967778125
0.14595536923479 0.016807132566226 19.746010667642 0.029935125
0.14595536923479 0.016807132566226 20.923133103153 0.03019253125
0.14595536923479 0.016807132566226 22.100023842535 0.03045
0.14595536923479 0.016807132566226 23.276683082345 0.03070753125
0.14595536923479 0.016807132566226 24.453111018911 0.030965125
0.14595536923479 0.016807132566226 25.629307848328 0.03122278125
0.14595536923479 0.016807132566226 26.805273766457 0.0314805
0.14595536923479 0.016807132566226 27.98100896893 0.03173828125
0.14595536923479 0.016807132566226 29.156513651147 0.031996125
0.14595536923479 0.016807132566226 30.331788008274 0.03225403125
0.14595536923479 0.016807132566226 31.506832235252 0.032512
0.14595536923479 0.016807132566226 32.681646526786 0.03277003125
0.14595536923479 0.016807132566226 33.856231077355 0.033028125
0.14595536923479 0.016807132566226 35.030586081204 0.03328628125
0.14595536923479 0.016807132566226 36.204711732355 0.0335445
0.14595536923479 0.016807132566226 37.378608224593 0.03380278125
0.14595536923479 0.016807132566226 38.552275751482 0.034061125
0.14595536923479 0.016807132566226 39.72571450635 0.03431953125
0.14595536923479 0.016807132566226 40.898924682304 0.034578
0.14595536923479 0.016807132566226 42.071906472217 0.03483653125
0.14595536923479 0.016807132566226 43.244660068738 0.035095125
0.14595536923479 0.016807132566226 44.41718566429 0.03535378125
0.14595536923479 0.016807132566226 45.589483451064 0.0356125
0.14595536923479 0.016807132566226 46.76155362103 0.03587128125
0.14595536923479 0.016807132566226 47.933396365928 0.036130125
0.14595536923479 0.016807132566226 49.105011877275 0.03638903125
0.14595536923479 0.016807132566226 50.276400346359 0.036648
0.14595536923479 0.016807132566226 51.447561964246 0.03690703125
0.14595536923479 0.016807132566226 52.618496921777 0.037166125
0.14595536923479 0.016807132566226 53.789205409564 0.03742528125
0.14595536923479 0.016807132566226 54.959687617998 0.0376845
0.14595536923479 0.016807132566226 56.129943737247 0.03794378125
0.14595536923479 0.016807132566226 57.299973957255 0.038203125
0.14595536923479 0.016807132566226 58.469778467737 0.03846253125
0.14595536923479 0.016807132566226 59.639357458194 0.038722
0.14652445746339 0.016944783484969 59.376512168575 0.03898153125
0.14709129949084 0.017082488915955 59.116337134639 0.039241125
0.14765592769691 0.017220247572053 58.858784402974 0.03950078125
0.148218358592 0.017358058809757 58.603814402175 0.0397605
0.14877861382245 0.017495921786563 58.351385780845 0.04002028125
0.14933671467377 0.017633835672951 58.101458105147 0.040280125
0.14989268207925 0.01777179965211 57.85399183265 0.04054003125
0.15044653662802 0.017909812919677 57.608948287191 0.0408
0.15099829857324 0.018047874683479 57.366289634487 0.04106003125
0.15154798783978 0.018185984163279 57.125978858628 0.041320125
0.15209562403194 0.018324140590533 56.887979739329 0.04158028125
0.15264122644053 0.018462343208153 56.652256830067 0.0418405
0.15264123040617 0.018462343208153 55.581909836603 0.04158028125
0.15264123040617 0.018462343208153 54.511360051824 0.041320125
0.15264123040617 0.018462343208153 53.440604453995 0.04106003125
0.15264123040617 0.018462343208153 52.369642870652 0.0408
0.15264123040617 0.018462343208153 51.298475129121 0.04054003125
0.15264123040617 0.018462343208153 50.227101056533 0.040280125
0.15264123040617 0.018462343208153 49.155520479811 0.04002028125
0.15264123040617 0.018462343208153 48.083733225676 0.0397605
0.15264123040617 0.018462343208153 47.01173912065 0.03950078125
0.15264123040617 0.018462343208153 45.939537991043 0.039241125
0.15264123040617 0.018462343208153 44.867129662965 0.03898153125
0.15264123040617 0.018462343208153 43.794513962321 0.038722
0.15264123040617 0.018462343208153 42.721690714812 0.03846253125
0.15264123040617 0.018462343208153 41.648659745934 0.038203125
0.15264123040617 0.018462343208153 40.575420880974 0.03794378125
0.15264123040617 0.018462343208153 39.501973945019 0.0376845
0.15264123040617 0.018462343208153 38.428318762947 0.03742528125
0.15264123040617 0.018462343208153 37.354455159429 0.037166125
0.15264123040617 0.018462343208153 36.28038295893 0.03690703125
0.15264123040617 0.018462343208153 35.206101985712 0.036648
0.15264123040617 0.018462343208153 34.131612063824 0.03638903125
0.15264123040617 0.018462343208153 33.056913017112 0.036130125
0.15264123040617 0.018462343208153 31.982004669211 0.03587128125
0.15264123040617 0.018462343208153 30.90688684355 0.0356125
0.15264123040617 0.018462343208153 29.83155936335 0.03535378125
0.15264123040617 0.018462343208153 28.756022051623 0.035095125
0.15264123040617 0.018462343208153 27.680274731173 0.03483653125
0.15264123040617 0.018462343208153 26.604317224593 0.034578
0.15264123040617 0.018462343208153 25.528149354265 0.03431953125
0.15264123040617 0.018462343208153 24.451770942369 0.034061125
0.15264123040617 0.018462343208153 23.375181810867 0.03380278125
0.15264123040617 0.018462343208153 22.298381781513 0.0335445
0.15264123040617 0.018462343208153 21.221370675852 0.03328628125
0.15264123040617 0.018462343208153 20.144148315216 0.033028125
0.15264123040617 0.018462343208153 19.066714520728 0.03277003125
0.15264123040617 0.018462343208153 17.9890691133 0.032512
0.15264123040617 0.018462343208153 16.911211913629 0.03225403125
0.15264123040617 0.018462343208153 15.833142742202 0.031996125
0.15264123040617 0.018462343208153 14.754861419292 0.03173828125
0.15264123040617 0.018462343208153 13.67636776496 0.0314805
0.15264123040617 0.018462343208153 12.597661599057 0.03122278125
0.15264123040617 0.018462343208153 11.518742741216 0.030965125
0.15264123040617 0.018462343208153 10.43961101086 0.03070753125
0.15264123040617 0.018462343208153 9.3602662271963 0.03045
0.15264123040617 0.018462343208153 8.2807082092189 0.03019253125
0.15264123040617 0.018462343208153 7.2009367757081 0.029935125
0.15264123040617 0.018462343208153 6.1209517452268 0.02967778125
0.15264123040617 0.018462343208153 5.0407529361244 0.0294205
0.15264123040617 0.018462343208153 3.9603401665355 0.02916328125
0.15264123040617 0.018462343208153 2.8797132543764 0.028906125
0.15264123040617 0.018462343208153 1.7988720173517 0.02864903125
0.15264123040617 0.018462343208153 0.7178162729479 0.028392
0.15264123040617 0.018462343208153 -0.40654039711355 0.02813503125
0.15264123040617 0.018462343208153 0.71781627294809 0.028392
0.15264123040617 0.018462343208153 1.7988720173526 0.02864903125
0.15264123040617 0.018462343208153 2.8797132543776 0.028906125
0.15264123040617 0.018462343208153 3.960340166536 0.02916328125
0.15264123040617 0.018462343208153 5.040752936125 0.0294205
0.15264123040617 0.018462343208153 6.1209517452286 0.02967778125
0.15264123040617 0.018462343208153 7.2009367757109 0.029935125
0.15264123040617 0.018462343208153 8.2807082092215 0.03019253125
0.15264123040617 0.018462343208153 9.3602662271998 0.03045
0.15264123040617 0.018462343208153 10.439611010864 0.03070753125
0.15264123040617 0.018462343208153 11.51874274122 0.030965125
0.15264123040617 0.018462343208153 12.59766159906 0.03122278125
0.15264123040617 0.018462343208153 13.676367764964 0.0314805
0.15264123040617 0.018462343208153 14.754861419295 0.03173828125
0.15264123040617 0.018462343208153 15.833142742207 0.031996125
0.15264123040617 0.018462343208153 16.911211913634 0.03225403125
0.15264123040617 0.018462343208153 17.989069113306 0.032512
0.15264123040617 0.018462343208153 19.066714520735 0.03277003125
0.15264123040617 0.018462343208153 20.144148315222 0.033028125
0.15264123040617 0.018462343208153 21.221370675857 0.03328628125
0.15264123040617 0.018462343208153 22.298381781516 0.0335445
0.15264123040617 0.018462343208153 23.375181810871 0.03380278125
0.15264123040617 0.018462343208153 24.451770942373 0.034061125
0.15264123040617 0.018462343208153 25.52814935427 0.03431953125
0.15264123040617 0.018462343208153 26.604317224597 0.034578
0.15264123040617 0.018462343208153 27.680274731178 0.03483653125
0.15264123040617 0.018462343208153 28.756022051628 0.035095125
0.15264123040617 0.018462343208153 29.831559363355 0.03535378125
0.15264123040617 0.018462343208153 30.906886843555 0.0356125
0.15264123040617 0.018462343208153 31.982004669215 0.03587128125
0.15264123040617 0.018462343208153 33.056913017117 0.036130125
0.15264123040617 0.018462343208153 34.13161206383 0.03638903125
0.15264123040617 0.018462343208153 35.206101985718 0.036648
0.15264123040617 0.018462343208153 36.280382958936 0.03690703125
0.15264123040617 0.018462343208153 37.354455159435 0.037166125
0.15264123040617 0.018462343208153 38.428318762952 0.03742528125
0.15264123040617 0.018462343208153 39.501973945025 0.0376845
0.15264123040617 0.018462343208153 40.575420880979 0.03794378125
0.15264123040617 0.018462343208153 41.64865974594 0.038203125
0.15264123040617 0.018462343208153 42.721690714818 0.03846253125
0.15264123040617 0.018462343208153 43.794513962328 0.038722
0.15264123040617 0.018462343208153 44.867129662972 0.03898153125
0.15264123040617 0.018462343208153 45.939537991051 0.039241125
0.15264123040617 0.018462343208153 47.011739120659 0.03950078125
0.15264123040617 0.018462343208153 48.083733225686 0.0397605
0.15264123040617 0.018462343208153 49.15552047982 0.04002028125
0.15264123040617 0.018462343208153 50.227101056542 0.040280125
0.15264123040617 0.018462343208153 51.29847512913 0.04054003125
0.15264123040617 0.018462343208153 52.36964287066 0.0408
0.15264123040617 0.018462343208153 53.440604454004 0.04106003125
0.15264123040617 0.018462343208153 54.511360051833 0.041320125
0.15264123040617 0.018462343208153 55.581909836612 0.04158028125
0.15264123040617 0.018462343208153 56.652253980605 0.0418405
0.15318481405016 0.018600591270277 56.418775436833 0.04210078125
0.15372640554608 0.018738884042034 56.187501597645 0.042361125
0.1542660193209 0.018877220799337 55.958402062745 0.04262153125
0.15480367348105 0.01901560082866 55.731444275448 0.042882
0.1553393858531 0.019154023426836 55.506596353645 0.04314253125
0.15587317398996 0.019292487900843 55.283827071813 0.043403125
0.15640505517675 0.01943099356762 55.063105843777 0.04366378125
0.1569350464367 0.019569539753861 54.844402705826 0.0439245
0.15746316453667 0.019708125795834 54.627688300567 0.04418528125
0.15798942599271 0.019846751039193 54.412933861126 0.044446125
0.15851384707534 0.019985414838804 54.20011119599 0.04470703125
0.15903644381474 0.020124116558564 53.989192674202 0.044968
0.15903644663397 0.020124116558564 53.004071308709 0.04470703125
0.15903644663397 0.020124116558564 52.018763238579 0.044446125
0.15903644663397 0.020124116558564 51.033266419875 0.04418528125
0.15903644663397 0.020124116558564 50.04758069491 0.0439245
0.15903644663397 0.020124116558564 49.061705905814 0.04366378125
0.15903644663397 0.020124116558564 48.075641894534 0.043403125
0.15903644663397 0.020124116558564 47.089388502824 0.04314253125
0.15903644663397 0.020124116558564 46.102945572262 0.042882
0.15903644663397 0.020124116558564 45.116312944234 0.04262153125
0.15903644663397 0.020124116558564 44.129490459944 0.042361125
0.15903644663397 0.020124116558564 43.142477960404 0.04210078125
0.15903644663397 0.020124116558564 42.155275286448 0.0418405
0.15903644663397 0.020124116558564 41.167882278717 0.04158028125
0.15903644663397 0.020124116558564 40.180298777665 0.041320125
0.15903644663397 0.020124116558564 39.192524623564 0.04106003125
0.15903644663397 0.020124116558564 38.204559656495 0.0408
0.15903644663397 0.020124116558564 37.21640371635 0.04054003125
0.15903644663397 0.020124116558564 36.228056642836 0.040280125
0.15903644663397 0.020124116558564 35.239518275468 0.04002028125
0.15903644663397 0.020124116558564 34.250788453575 0.0397605
0.15903644663397 0.020124116558564 33.2618670163 0.03950078125
0.15903644663397 0.020124116558564 32.272753802592 0.039241125
0.15903644663397 0.020124116558564 31.28344865121 0.03898153125
0.15903644663397 0.020124116558564 30.29395140073 0.038722
0.15903644663397 0.020124116558564 29.304261889532 0.03846253125
0.15903644663397 0.020124116558564 28.314379955808 0.038203125
0.15903644663397 0.020124116558564 27.32430543756 0.03794378125
0.15903644663397 0.020124116558564 26.334038172599 0.0376845
0.15903644663397 0.020124116558564 25.343577998546 0.03742528125
0.15903644663397 0.020124116558564 24.352924752829 0.037166125
0.15903644663397 0.020124116558564 23.362078272685 0.03690703125
0.15903644663397 0.020124116558564 22.371038395162 0.036648
0.15903644663397 0.020124116558564 21.379804957111 0.03638903125
0.15903644663397 0.020124116558564 20.388377795194 0.036130125
0.15903644663397 0.020124116558564 19.396756745882 0.03587128125
0.15903644663397 0.020124116558564 18.404941645449 0.0356125
0.15903644663397 0.020124116558564 17.412932329981 0.03535378125
0.15903644663397 0.020124116558564 16.420728635365 0.035095125
0.15903644663397 0.020124116558564 15.428330397299 0.03483653125
0.15903644663397 0.020124116558564 14.435737451285 0.034578
0.15903644663397 0.020124116558564 13.44294963263 0.03431953125
0.15903644663397 0.020124116558564 12.449966776451 0.034061125
0.15903644663397 0.020124116558564 11.456788717663 0.03380278125
0.15903644663397 0.020124116558564 10.463415290995 0.0335445
0.15903644663397 0.020124116558564 9.4698463309728 0.03328628125
0.15903644663397 0.020124116558564 8.476081671929 0.033028125
0.15903644663397 0.020124116558564 7.4821211480043 0.03277003125
0.15903644663397 0.020124116558564 6.487964593139 0.032512
0.15903644663397 0.020124116558564 5.4936118410788 0.03225403125
0.15903644663397 0.020124116558564 4.4990627253739 0.031996125
0.15903644663397 0.020124116558564 3.5043170793712 0.03173828125
0.15903644663397 0.020124116558564 2.5093747362308 0.0314805
0.15903644663397 0.020124116558564 1.5142355289076 0.03122278125
0.15903644663397 0.020124116558564 0.51889929016039 0.030965125
0.15903644663397 0.020124116558564 -0.53346712562518 0.03070753125
0.15903644663397 0.020124116558564 0.51889929016052 0.030965125
0.15903644663397 0.020124116558564 1.5142355289071 0.03122278125
0.15903644663397 0.020124116558564 2.5093747362298 0.0314805
0.15903644663397 0.020124116558564 3.5043170793705 0.03173828125
0.15903644663397 0.020124116558564 4.4990627253717 0.031996125
0.15903644663397 0.020124116558564 5.4936118410771 0.03225403125
0.15903644663397 0.020124116558564 6.4879645931383 0.032512
0.15903644663397 0.020124116558564 7.4821211480023 0.03277003125
0.15903644663397 0.020124116558564 8.4760816719268 0.033028125
0.15903644663397 0.020124116558564 9.4698463309696 0.03328628125
0.15903644663397 0.020124116558564 10.463415290992 0.0335445
0.15903644663397 0.020124116558564 11.456788717661 0.03380278125
0.15903644663397 0.020124116558564 12.449966776448 0.034061125
0.15903644663397 0.020124116558564 13.442949632627 0.03431953125
0.15903644663397 0.020124116558564 14.435737451282 0.034578
0.15903644663397 0.020124116558564 15.428330397296 0.03483653125
0.15903644663397 0.020124116558564 16.420728635362 0.035095125
0.15903644663397 0.020124116558564 17.412932329978 0.03535378125
0.15903644663397 0.020124116558564 18.404941645447 0.0356125
0.15903644663397 0.020124116558564 19.396756745879 0.03587128125
0.15903644663397 0.020124116558564 20.388377795192 0.036130125
0.15903644663397 0.020124116558564 21.379804957108 0.03638903125
0.15903644663397 0.020124116558564 22.371038395161 0.036648
0.15903644663397 0.020124116558564 23.362078272684 0.03690703125
0.15903644663397 0.020124116558564 24.352924752828 0.037166125
0.15903644663397 0.020124116558564 25.343577998545 0.03742528125
0.15903644663397 0.020124116558564 26.334038172598 0.0376845
0.15903644663397 0.020124116558564 27.324305437559 0.03794378125
0.15903644663397 0.020124116558564 28.314379955806 0.038203125
0.15903644663397 0.020124116558564 29.30426188953 0.03846253125
0.15903644663397 0.020124116558564 30.293951400729 0.038722
0.15903644663397 0.020124116558564 31.283448651209 0.03898153125
0.15903644663397 0.020124116558564 32.27275380259 0.039241125
0.15903644663397 0.020124116558564 33.261867016299 0.03950078125
0.15903644663397 0.020124116558564 34.250788453575 0.0397605
0.15903644663397 0.020124116558564 35.239518275466 0.04002028125
0.15903644663397 0.020124116558564 36.228056642835 0.040280125
0.15903644663397 0.020124116558564 37.216403716349 0.04054003125
0.15903644663397 0.020124116558564 38.204559656494 0.0408
0.15903644663397 0.020124116558564 39.192524623563 0.04106003125
0.15903644663397 0.020124116558564 40.180298777663 0.041320125
0.15903644663397 0.020124116558564 41.167882278714 0.04158028125
0.15903644663397 0.020124116558564 42.155275286445 0.0418405
0.15903644663397 0.020124116558564 43.142477960402 0.04210078125
0.15903644663397 0.020124116558564 44.129490459941 0.042361125
0.15903644663397 0.020124116558564 45.116312944233 0.04262153125
0.15903644663397 0.020124116558564 46.102945572261 0.042882
0.15903644663397 0.020124116558564 47.089388502822 0.04314253125
0.15903644663397 0.020124116558564 48.075641894532 0.043403125
0.15903644663397 0.020124116558564 49.061705905814 0.04366378125
0.15903644663397 0.020124116558564 50.047580694909 0.0439245
0.15903644663397 0.020124116558564 51.033266419875 0.04418528125
0.15903644663397 0.020124116558564 52.018763238579 0.044446125
0.15903644663397 0.020124116558564 53.004071308709 0.04470703125
0.15903644663397 0.020124116558564 53.989190787767 0.044968
0.15955723200572 0.020262855571237 53.780151211154 0.04522903125
0.16007622721282 0.02040163125828 53.572960254621 0.045490125
0.16059344477478 0.020540443009687 53.367593771515 0.04575128125
0.16110889980943 0.020679290223828 53.164026234749 0.0460125
0.16162260721812 0.020818172307293 52.962232610691 0.04627378125
0.16213458169003 0.020957088674745 52.762188346963 0.046535125
0.16264483770658 0.021096038748766 52.563869360568 0.04679653125
0.16315338954551 0.021235021959722 52.367252026401 0.047058
0.16366025128506 0.021374037745611 52.172313166079 0.04731953125
0.16416543680774 0.021513085551936 51.979030037184 0.047581125
0.16466895980433 0.021652164831567 51.787380322706 0.04784278125
0.16517083377756 0.021791275044607 51.597342120893 0.0481045
0.16517083581391 0.021791275044607 50.686146354417 0.04784278125
0.16517083581391 0.021791275044607 49.774778040703 0.047581125
0.16517083581391 0.021791275044607 48.863235760338 0.04731953125
0.16517083581391 0.021791275044607 47.951519368425 0.047058
0.16517083581391 0.021791275044607 47.039628719898 0.04679653125
0.16517083581391 0.021791275044607 46.127563669522 0.046535125
0.16517083581391 0.021791275044607 45.215324071889 0.04627378125
0.16517083581391 0.021791275044607 44.302909781428 0.0460125
0.16517083581391 0.021791275044607 43.390320652391 0.04575128125
0.16517083581391 0.021791275044607 42.477556538863 0.045490125
0.16517083581391 0.021791275044607 41.564617294759 0.04522903125
0.16517083581391 0.021791275044607 40.651502773822 0.044968
0.16517083581391 0.021791275044607 39.738212829621 0.04470703125
0.16517083581391 0.021791275044607 38.82474731556 0.044446125
0.16517083581391 0.021791275044607 37.911106084868 0.04418528125
0.16517083581391 0.021791275044607 36.9972889906 0.0439245
0.16517083581391 0.021791275044607 36.083295885644 0.04366378125
0.16517083581391 0.021791275044607 35.169126622711 0.043403125
0.16517083581391 0.021791275044607 34.254781054345 0.04314253125
0.16517083581391 0.021791275044607 33.34025903291 0.042882
0.16517083581391 0.021791275044607 32.425560410603 0.04262153125
0.16517083581391 0.021791275044607 31.510685039445 0.042361125
0.16517083581391 0.021791275044607 30.595632771284 0.04210078125
0.16517083581391 0.021791275044607 29.680403457795 0.0418405
0.16517083581391 0.021791275044607 28.76499695048 0.04158028125
0.16517083581391 0.021791275044607 27.849413100663 0.041320125
0.16517083581391 0.021791275044607 26.933651759497 0.04106003125
0.16517083581391 0.021791275044607 26.01771277796 0.0408
0.16517083581391 0.021791275044607 25.101596006854 0.04054003125
0.16517083581391 0.021791275044607 24.185301296806 0.040280125
0.16517083581391 0.021791275044607 23.268828498267 0.04002028125
0.16517083581391 0.021791275044607 22.352177461516 0.0397605
0.16517083581391 0.021791275044607 21.435348036652 0.03950078125
0.16517083581391 0.021791275044607 20.518340073598 0.039241125
0.16517083581391 0.021791275044607 19.601153422103 0.03898153125
0.16517083581391 0.021791275044607 18.683787931739 0.038722
0.16517083581391 0.021791275044607 17.766243451898 0.03846253125
0.16517083581391 0.021791275044607 16.8485198318 0.038203125
0.16517083581391 0.021791275044607 15.930616920484 0.03794378125
0.16517083581391 0.021791275044607 15.01253456681 0.0376845
0.16517083581391 0.021791275044607 14.094272619466 0.03742528125
0.16517083581391 0.021791275044607 13.175830926956 0.037166125
0.16517083581391 0.021791275044607 12.257209337608 0.03690703125
0.16517083581391 0.021791275044607 11.338407699573 0.036648
0.16517083581391 0.021791275044607 10.419425860819 0.03638903125
0.16517083581391 0.021791275044607 9.5002636691415 0.036130125
0.16517083581391 0.021791275044607 8.5809209721483 0.03587128125
0.16517083581391 0.021791275044607 7.6613976172735 0.0356125
0.16517083581391 0.021791275044607 6.7416934517694 0.03535378125
0.16517083581391 0.021791275044607 5.8218083227077 0.035095125
0.16517083581391 0.021791275044607 4.9017420769825 0.03483653125
0.16517083581391 0.021791275044607 3.9814945613033 0.034578
0.16517083581391 0.021791275044607 3.0610656222014 0.03431953125
0.16517083581391 0.021791275044607 2.1404551060272 0.034061125
0.16517083581391 0.021791275044607 1.2196628589455 0.03380278125
0.16517083581391 0.021791275044607 0.29868872694772 0.0335445
0.16517083581391 0.021791275044607 -0.6970586800138 0.03328628125
0.16517083581391 0.021791275044607 0.29868872694751 0.0335445
0.16517083581391 0.021791275044607 1.2196628589466 0.03380278125
0.16517083581391 0.021791275044607 2.1404551060271 0.034061125
0.16517083581391 0.021791275044607 3.061065622201 0.03431953125
0.16517083581391 0.021791275044607 3.9814945613032 0.034578
0.16517083581391 0.021791275044607 4.9017420769816 0.03483653125
0.16517083581391 0.021791275044607 5.8218083227072 0.035095125
0.16517083581391 0.021791275044607 6.7416934517679 0.03535378125
0.16517083581391 0.021791275044607 7.6613976172717 0.0356125
0.16517083581391 0.021791275044607 8.5809209721465 0.03587128125
0.16517083581391 0.021791275044607 9.5002636691398 0.036130125
0.16517083581391 0.021791275044607 10.419425860818 0.03638903125
0.16517083581391 0.021791275044607 11.338407699571 0.036648
0.16517083581391 0.021791275044607 12.257209337605 0.03690703125
0.16517083581391 0.021791275044607 13.175830926952 0.037166125
0.16517083581391 0.021791275044607 14.094272619462 0.03742528125
0.16517083581391 0.021791275044607 15.012534566806 0.0376845
0.16517083581391 0.021791275044607 15.930616920478 0.03794378125
0.16517083581391 0.021791275044607 16.848519831795 0.038203125
0.16517083581391 0.021791275044607 17.766243451893 0.03846253125
0.16517083581391 0.021791275044607 18.683787931734 0.038722
0.16517083581391 0.021791275044607 19.601153422098 0.03898153125
0.16517083581391 0.021791275044607 20.518340073593 0.039241125
0.16517083581391 0.021791275044607 21.435348036648 0.03950078125
0.16517083581391 0.021791275044607 22.352177461511 0.0397605
0.16517083581391 0.021791275044607 23.268828498263 0.04002028125
0.16517083581391 0.021791275044607 24.185301296801 0.040280125
0.16517083581391 0.021791275044607 25.101596006848 0.04054003125
0.16517083581391 0.021791275044607 26.017712777955 0.0408
0.16517083581391 0.021791275044607 26.933651759492 0.04106003125
0.16517083581391 0.021791275044607 27.849413100657 0.041320125
0.16517083581391 0.021791275044607 28.764996950474 0.04158028125
0.16517083581391 0.021791275044607 29.68040345779 0.0418405
0.16517083581391 0.021791275044607 30.595632771279 0.04210078125
0.16517083581391 0.021791275044607 31.510685039439 0.042361125
0.16517083581391 0.021791275044607 32.425560410599 0.04262153125
0.16517083581391 0.021791275044607 33.340259032906 0.042882
0.16517083581391 0.021791275044607 34.254781054341 0.04314253125
0.16517083581391 0.021791275044607 35.169126622709 0.043403125
0.16517083581391 0.021791275044607 36.083295885642 0.04366378125
0.16517083581391 0.021791275044607 36.997288990597 0.0439245
0.16517083581391 0.021791275044607 37.911106084865 0.04418528125
0.16517083581391 0.021791275044607 38.824747315557 0.044446125
0.16517083581391 0.021791275044607 39.738212829617 0.04470703125
0.16517083581391 0.021791275044607 40.651502773817 0.044968
0.16517083581391 0.021791275044607 41.564617294754 0.04522903125
0.16517083581391 0.021791275044607 42.477556538859 0.045490125
0.16517083581391 0.021791275044607 43.390320652388 0.04575128125
0.16517083581391 0.021791275044607 44.302909781423 0.0460125
0.16517083581391 0.021791275044607 45.215324071886 0.04627378125
0.16517083581391 0.021791275044607 46.127563669518 0.046535125
0.16517083581391 0.021791275044607 47.039628719894 0.04679653125
0.16517083581391 0.021791275044607 47.951519368422 0.047058
0.16517083581391 0.021791275044607 48.863235760334 0.04731953125
0.16517083581391 0.021791275044607 49.774778040699 0.047581125
0.16517083581391 0.021791275044607 50.686146354412 0.04784278125
0.16517083581391 0.021791275044607 51.597340846203 0.0481045
0.16567107204583 0.021930415658267 51.408893935325 0.04836628125
0.16616968774676 0.022069586146739 51.222014665332 0.048628125
0.16666669384056 0.02220878599108 51.036683596698 0.04889003125
0.16716210311365 0.022348014679079 50.852880392513 0.049152
0.16765592818179 0.022487271705151 50.670585084459 0.04941403125
0.16814818149323 0.022626556570223 50.489778064272 0.049676125
0.16863887533216 0.022765868781614 50.310440075341 0.04993828125
0.16912802182143 0.022905207852934 50.132552204742 0.0502005
0.16961563292587 0.02304457330397 49.956095875299 0.05046278125
0.17010172045492 0.023183964660589 49.781052838046 0.050725125
0.17058629606573 0.023323381454624 49.607405164724 0.05098753125
0.17106937126576 0.02346282322379 49.435135240636 0.05125
0.17106937275804 0.02346282322379 48.588623945577 0.05098753125
0.17106937275804 0.02346282322379 47.741952611341 0.050725125
0.17106937275804 0.02346282322379 46.895120226968 0.05046278125
0.17106937275804 0.02346282322379 46.048126658723 0.0502005
0.17106937275804 0.02346282322379 45.200971772718 0.04993828125
0.17106937275804 0.02346282322379 44.353655434905 0.049676125
0.17106937275804 0.02346282322379 43.506177511081 0.04941403125
0.17106937275804 0.02346282322379 42.65853786689 0.049152
0.17106937275804 0.02346282322379 41.810736367815 0.04889003125
0.17106937275804 0.02346282322379 40.962772879185 0.048628125
0.17106937275804 0.02346282322379 40.11464726617 0.04836628125
0.17106937275804 0.02346282322379 39.266359393783 0.0481045
0.17106937275804 0.02346282322379 38.417909126883 0.04784278125
0.17106937275804 0.02346282322379 37.569296330167 0.047581125
0.17106937275804 0.02346282322379 36.720520868177 0.04731953125
0.17106937275804 0.02346282322379 35.871582605296 0.047058
0.17106937275804 0.02346282322379 35.022481405747 0.04679653125
0.17106937275804 0.02346282322379 34.173217133596 0.046535125
0.17106937275804 0.02346282322379 33.323789652752 0.04627378125
0.17106937275804 0.02346282322379 32.474198826961 0.0460125
0.17106937275804 0.02346282322379 31.624444519815 0.04575128125
0.17106937275804 0.02346282322379 30.77452659474 0.045490125
0.17106937275804 0.02346282322379 29.924444915009 0.04522903125
0.17106937275804 0.02346282322379 29.074199343732 0.044968
0.17106937275804 0.02346282322379 28.223789743856 0.04470703125
0.17106937275804 0.02346282322379 27.373215978175 0.044446125
0.17106937275804 0.02346282322379 26.522477909315 0.04418528125
0.17106937275804 0.02346282322379 25.671575399747 0.0439245
0.17106937275804 0.02346282322379 24.820508311778 0.04366378125
0.17106937275804 0.02346282322379 23.969276507552 0.043403125
0.17106937275804 0.02346282322379 23.117879849057 0.04314253125
0.17106937275804 0.02346282322379 22.266318198116 0.042882
0.17106937275804 0.02346282322379 21.414591416389 0.04262153125
0.17106937275804 0.02346282322379 20.562699365378 0.042361125
0.17106937275804 0.02346282322379 19.710641906416 0.04210078125
0.17106937275804 0.02346282322379 18.858418900682 0.0418405
0.17106937275804 0.02346282322379 18.006030209185 0.04158028125
0.17106937275804 0.02346282322379 17.153475692775 0.041320125
0.17106937275804 0.02346282322379 16.300755212136 0.04106003125
0.17106937275804 0.02346282322379 15.447868627794 0.0408
0.17106937275804 0.02346282322379 14.594815800103 0.04054003125
0.17106937275804 0.02346282322379 13.741596589261 0.040280125
0.17106937275804 0.02346282322379 12.888210855296 0.04002028125
0.17106937275804 0.02346282322379 12.034658458075 0.0397605
0.17106937275804 0.02346282322379 11.180939257302 0.03950078125
0.17106937275804 0.02346282322379 10.327053112509 0.039241125
0.17106937275804 0.02346282322379 9.4729998830702 0.03898153125
0.17106937275804 0.02346282322379 8.6187794281925 0.038722
0.17106937275804 0.02346282322379 7.764391606917 0.03846253125
0.17106937275804 0.02346282322379 6.9098362781174 0.038203125
0.17106937275804 0.02346282322379 6.0551133005024 0.03794378125
0.17106937275804 0.02346282322379 5.200222532617 0.0376845
0.17106937275804 0.02346282322379 4.3451638328372 0.03742528125
0.17106937275804 0.02346282322379 3.4899370593725 0.037166125
0.17106937275804 0.02346282322379 2.6345420702653 0.03690703125
0.17106937275804 0.02346282322379 1.7789787233926 0.036648
0.17106937275804 0.02346282322379 0.92324687646287 0.03638903125
0.17106937275804 0.02346282322379 0.067346387015723 0.036130125
0.17106937275804 0.02346282322379 -0.88364094925567 0.03587128125
0.17106937275804 0.02346282322379 0.067346387015316 0.036130125
0.17106937275804 0.02346282322379 0.9232468764617 0.03638903125
0.17106937275804 0.02346282322379 1.778978723392 0.036648
0.17106937275804 0.02346282322379 2.6345420702641 0.03690703125
0.17106937275804 0.02346282322379 3.4899370593714 0.037166125
0.17106937275804 0.02346282322379 4.345163832837 0.03742528125
0.17106937275804 0.02346282322379 5.2002225326166 0.0376845
0.17106937275804 0.02346282322379 6.0551133005013 0.03794378125
0.17106937275804 0.02346282322379 6.9098362781155 0.038203125
0.17106937275804 0.02346282322379 7.7643916069143 0.03846253125
0.17106937275804 0.02346282322379 8.618779428191 0.038722
0.17106937275804 0.02346282322379 9.4729998830684 0.03898153125
0.17106937275804 0.02346282322379 10.327053112507 0.039241125
0.17106937275804 0.02346282322379 11.1809392573 0.03950078125
0.17106937275804 0.02346282322379 12.034658458074 0.0397605
0.17106937275804 0.02346282322379 12.888210855295 0.04002028125
0.17106937275804 0.02346282322379 13.74159658926 0.040280125
0.17106937275804 0.02346282322379 14.594815800103 0.04054003125
0.17106937275804 0.02346282322379 15.447868627793 0.0408
0.17106937275804 0.02346282322379 16.300755212136 0.04106003125
0.17106937275804 0.02346282322379 17.153475692774 0.041320125
0.17106937275804 0.02346282322379 18.006030209184 0.04158028125
0.17106937275804 0.02346282322379 18.858418900681 0.0418405
0.17106937275804 0.02346282322379 19.710641906416 0.04210078125
0.17106937275804 0.02346282322379 20.562699365378 0.042361125
0.17106937275804 0.02346282322379 21.414591416389 0.04262153125
0.17106937275804 0.02346282322379 22.266318198116 0.042882
0.17106937275804 0.02346282322379 23.117879849057 0.04314253125
0.17106937275804 0.02346282322379 23.969276507553 0.043403125
0.17106937275804 0.02346282322379 24.820508311778 0.04366378125
0.17106937275804 0.02346282322379 25.671575399747 0.0439245
0.17106937275804 0.02346282322379 26.522477909316 0.04418528125
0.17106937275804 0.02346282322379 27.373215978176 0.044446125
0.17106937275804 0.02346282322379 28.223789743857 0.04470703125
0.17106937275804 0.02346282322379 29.074199343733 0.044968
0.17106937275804 0.02346282322379 29.92444491501 0.04522903125
0.17106937275804 0.02346282322379 30.774526594741 0.045490125
0.17106937275804 0.02346282322379 31.624444519816 0.04575128125
0.17106937275804 0.02346282322379 32.474198826963 0.0460125
0.17106937275804 0.02346282322379 33.323789652753 0.04627378125
0.17106937275804 0.02346282322379 34.173217133598 0.046535125
0.17106937275804 0.02346282322379 35.022481405748 0.04679653125
0.17106937275804 0.02346282322379 35.871582605298 0.047058
0.17106937275804 0.02346282322379 36.720520868179 0.04731953125
0.17106937275804 0.02346282322379 37.56929633017 0.047581125
0.17106937275804 0.02346282322379 38.417909126885 0.04784278125
0.17106937275804 0.02346282322379 39.266359393783 0.0481045
0.17106937275804 0.02346282322379 40.11464726617 0.04836628125
0.17106937275804 0.02346282322379 40.962772879185 0.048628125
0.17106937275804 0.02346282322379 41.810736367815 0.04889003125
0.17106937275804 0.02346282322379 42.65853786689 0.049152
0.17106937275804 0.02346282322379 43.506177511082 0.04941403125
0.17106937275804 0.02346282322379 44.353655434905 0.049676125
0.17106937275804 0.02346282322379 45.200971772718 0.04993828125
0.17106937275804 0.02346282322379 46.048126658723 0.0502005
0.17106937275804 0.02346282322379 46.895120226968 0.05046278125
0.17106937275804 0.02346282322379 47.741952611341 0.050725125
0.17106937275804 0.02346282322379 48.588623945577 0.05098753125
0.17106937275804 0.02346282322379 49.435134363256 0.05125
0.17155095741557 0.023602289511571 49.264225757626 0.05151253125
