d ep stress_yy total_strain_yy
0 0 0 0
0 0 17.198244487881 0.00025003125000012
0 0 34.39297999966 0.00050012499999996
0 0 51.584209604609 0.00075028124999998
0 0 68.771936368333 0.0010004999999998
0 0 85.956163352665 0.00125078125
0 0 103.13689361576 0.0015011250000001
0 0 120.31413021198 0.0017515312499999
0 0 137.48787619204 0.0020019999999999
0 0 154.6581346029 0.0022525312500001
0 0 171.8249084878 0.0025031249999999
0 0 188.98820088633 0.00275378125
0 0 206.14801483436 0.0030044999999999
0 0 223.30435336401 0.00325528125
0 0 240.45721950387 0.003506125
0 0 257.60661627864 0.0037570312499999
0 0 274.75254670956 0.004008
0 0 291.89501381403 0.00425903125
0.0018106393056101 0 298.29153444049 0.0045101249999999
0.0047843450737056 8.3616208289297e-05 289.74879393335 0.0047612812500001
0.0073490503913168 0.00027294971819654 274.43772874154 0.0050124999999999
0.010003556643894 0.00047102037989428 259.1341454119 0.0052637812499999
0.012694251644492 0.00067621190764588 244.26870227445 0.0055151250000001
0.015367640752656 0.00088641881092577 230.19824335782 0.0057665312499999
0.017979468207079 0.0010994992264465 217.15427222969 0.006018
0.020499260294533 0.0013136260415168 205.23814074295 0.0062695312500001
0.022910089485666 0.0015274391565726 194.4493000408 0.0065211249999999
0.02520561103135 0.0017400343640815 184.72346662577 0.00677278125
0.027386541988461 0.0019508732835475 175.96496647294 0.0070244999999999
0.029457726119281 0.0021596787289158 168.06844349369 0.00727628125
0.031426073719061 0.0023663458495299 160.93121110519 0.0075281250000001
0.033299273867786 0.0025708768759498 154.45916610274 0.0077800312499999
0.035085046302428 0.0027733366400214 148.56893788155 0.008032
0.035085046363634 0.0027733366400214 138.92943077816 0.0077800312499999
0.035085046363634 0.0027733366400214 129.28798219837 0.0075281250000001
0.035085046363634 0.0027733366400214 119.64459033163 0.00727628125
0.035085046363634 0.0027733366400214 109.99925349031 0.0070244999999999
0.035085046363634 0.0027733366400214 100.3519699847 0.00677278125
0.035085046363634 0.0027733366400214 90.702738123045 0.0065211249999999
0.035085046363634 0.0027733366400214 81.051556211542 0.0062695312500001
0.035085046363634 0.0027733366400214 71.398422554341 0.006018
0.035085046363634 0.0027733366400214 61.743335453525 0.0057665312499999
0.035085046363634 0.0027733366400214 52.086293209159 0.0055151250000001
0.035085046363634 0.0027733366400214 42.427294119174 0.0052637812499999
0.035085046363634 0.0027733366400214 32.766336479488 0.0050124999999999
0.035085046363634 0.0027733366400214 23.103418583933 0.0047612812500001
0.035085046363634 0.0027733366400214 13.438538724286 0.0045101249999999
0.035085046363634 0.0027733366400214 3.7716951902094 0.00425903125
0.035085046363634 0.0027733366400214 -6.203169581908 0.004008
0.035085046363634 0.0027733366400214 3.7716951902047 0.00425903125
0.035085046363634 0.0027733366400214 13.438538724296 0.0045101249999999
0.035085046363634 0.0027733366400214 23.10341858396 0.0047612812500001
0.035085046363634 0.0027733366400214 32.766336479518 0.0050124999999999
0.035085046363634 0.0027733366400214 42.427294119207 0.0052637812499999
0.035085046363634 0.0027733366400214 52.086293209185 0.0055151250000001
0.035085046363634 0.0027733366400214 61.743335453544 0.0057665312499999
0.035085046363634 0.0027733366400214 71.398422554352 0.006018
0.035085046363634 0.0027733366400214 81.051556211542 0.0062695312500001
0.035085046363634 0.0027733366400214 90.702738123038 0.0065211249999999
0.035085046363634 0.0027733366400214 100.3519699847 0.00677278125
0.035085046363634 0.0027733366400214 109.99925349031 0.0070244999999999
0.035085046363634 0.0027733366400214 119.64459033163 0.00727628125
0.035085046363634 0.0027733366400214 129.28798219837 0.0075281250000001
0.035085046363634 0.0027733366400214 138.92943077816 0.0077800312499999
0.035085046363634 0.0027733366400214 148.56893775663 0.008032
0.036790746433882 0.0029738238080782 143.18802309497 0.0082840312500001
0.038423180983268 0.0031724528876376 138.25398194155 0.008536125
0.039988544256461 0.0033693433158821 133.71327814779 0.0087882812500001
0.041492419859499 0.0035646130692848 129.52005939349 0.0090404999999999
0.042939815417217 0.0037583751044773 125.6350154992 0.00929278125
0.044335211813501 0.0039507355439142 122.02436775434 0.009545125
0.045682616766091 0.0041417929184762 118.65900093311 0.0097975312499999
0.046985617379141 0.0043316380358794 115.51373025503 0.01005
0.048247429063481 0.00452035420661 112.56668794008 0.01030253125
0.049470939753386 0.0047080176618886 109.79881213594 0.010555125
0.050658749180948 0.0048946980626673 107.19342178034 0.01080778125
0.051813203395423 0.0050804590390148 104.73586281573 0.0110605
0.051813203427367 0.0050804590390148 96.994070408758 0.01080778125
0.051813203427367 0.0050804590390148 89.250722059883 0.010555125
0.051813203427367 0.0050804590390148 81.505816381219 0.01030253125
0.051813203427367 0.0050804590390148 73.759352024076 0.01005
0.051813203427367 0.0050804590390148 66.011327638132 0.0097975312499999
0.051813203427367 0.0050804590390148 58.261741871437 0.009545125
0.051813203427367 0.0050804590390148 50.510593370389 0.00929278125
0.051813203427367 0.0050804590390148 42.757880779762 0.0090404999999999
0.051813203427367 0.0050804590390148 35.003602742689 0.0087882812500001
0.051813203427367 0.0050804590390148 27.247757900662 0.008536125
0.051813203427367 0.0050804590390148 19.490344893535 0.0082840312500001
0.051813203427367 0.0050804590390148 11.731362359505 0.008032
0.051813203427367 0.0050804590390148 3.9708089351294 0.0077800312499999
0.051813203427367 0.0050804590390148 -4.0409459135872 0.0075281250000001
0.051813203427367 0.0050804590390148 3.970808935131 0.0077800312499999
0.051813203427367 0.0050804590390148 11.731362359503 0.008032
0.051813203427367 0.0050804590390148 19.49034489354 0.0082840312500001
0.051813203427367 0.0050804590390148 27.247757900657 0.008536125
0.051813203427367 0.0050804590390148 35.003602742681 0.0087882812500001
0.051813203427367 0.0050804590390148 42.757880779755 0.0090404999999999
0.051813203427367 0.0050804590390148 50.510593370385 0.00929278125
0.051813203427367 0.0050804590390148 58.261741871434 0.009545125
0.051813203427367 0.0050804590390148 66.011327638131 0.0097975312499999
0.051813203427367 0.0050804590390148 73.759352024073 0.01005
0.051813203427367 0.0050804590390148 81.505816381216 0.01030253125
0.051813203427367 0.0050804590390148 89.250722059877 0.010555125
0.051813203427367 0.0050804590390148 96.994070408755 0.01080778125
0.051813203427367 0.0050804590390148 104.73586277492 0.0110605
0.052936424918701 0.0052653587245232 102.41321329574 0.01131328125
0.054030338999525 0.0054494502659671 100.21403697798 0.011566125
0.055096696436925 0.0056327822981215 98.128176816218 0.01181903125
0.056137093418493 0.0058153993795492 96.146581313255 0.012072
0.057152988773722 0.0059973423886007 94.261157994838 0.01232503125
0.058145719001292 0.0061786488809671 92.464649315497 0.012578125
0.059116511376064 0.0063593534110797 90.750527184943 0.01283128125
0.060066495408779 0.0065394878203203 89.112902985299 0.0130845
0.060996712882304 0.0067190814949869 87.546450537081 0.01333778125
0.061908126666186 0.0068981615970932 86.046339909378 0.013591125
0.062801627689595 0.0070767532582114 84.608181631124 0.01384453125
0.063678044996043 0.0072548798157904 83.227972087669 0.014098
0.063678045706014 0.0072548798157904 76.514548223278 0.01384453125
0.063678045706014 0.0072548798157904 69.799779072968 0.013591125
0.063678045706014 0.0072548798157904 63.083662804002 0.01333778125
0.063678045706014 0.0072548798157904 56.366198253078 0.0130845
0.063678045706014 0.0072548798157904 49.647384255478 0.01283128125
0.063678045706014 0.0072548798157904 42.927219645055 0.012578125
0.063678045706014 0.0072548798157904 36.205703254308 0.01232503125
0.063678045706014 0.0072548798157904 29.48283391428 0.012072
0.063678045706014 0.0072548798157904 22.758610454633 0.01181903125
0.063678045706014 0.0072548798157904 16.033031703625 0.011566125
0.063678045706014 0.0072548798157904 9.3060964880664 0.01131328125
0.063678045706014 0.0072548798157904 2.577803633382 0.0110605
0.063678045706014 0.0072548798157904 -4.4570506805619 0.01080778125
0.063678045706014 0.0072548798157904 2.5778036333843 0.0110605
0.063678045706014 0.0072548798157904 9.306096488072 0.01131328125
0.063678045706014 0.0072548798157904 16.033031703624 0.011566125
0.063678045706014 0.0072548798157904 22.758610454632 0.01181903125
0.063678045706014 0.0072548798157904 29.48283391428 0.012072
0.063678045706014 0.0072548798157904 36.205703254306 0.01232503125
0.063678045706014 0.0072548798157904 42.927219645057 0.012578125
0.063678045706014 0.0072548798157904 49.647384255479 0.01283128125
0.063678045706014 0.0072548798157904 56.366198253078 0.0130845
0.063678045706014 0.0072548798157904 63.083662804009 0.01333778125
0.063678045706014 0.0072548798157904 69.799779072979 0.013591125
0.063678045706014 0.0072548798157904 76.514548223286 0.01384453125
0.063678045706014 0.0072548798157904 83.22797141688 0.014098
0.064538146861827 0.0074325628989652 81.902058779038 0.01435153125
0.065382649537345 0.007609822631298 80.62709745638 0.014605125
0.066212221149669 0.0077866777496573 79.400020993216 0.01485878125
0.067027485950285 0.0079631457236043 78.2180108625 0.0151125
0.067829028108208 0.0081392428627749 77.078472083632 0.01536628125
0.068617395103298 0.0083149844135704 75.979011158818 0.015620125
0.069393100770254 0.0084903846463739 74.917416588141 0.01587403125
0.070156628033469 0.0086654569343071 73.891641620414 0.016128
0.070908431370571 0.0088402138244742 72.899788943548 0.01638203125
0.071648939034789 0.0090146671024839 71.940097065847 0.016636125
0.072378555065059 0.0091888278509922 71.010928171806 0.01689028125
0.073097661106139 0.0093627065028713 70.110757270639 0.0171445
0.073097661340638 0.0093627065028713 64.079957717856 0.01689028125
0.073097661340638 0.0093627065028713 58.047952408443 0.016636125
0.073097661340638 0.0093627065028713 52.014740126905 0.01638203125
0.073097661340638 0.0093627065028713 45.980319833932 0.016128
0.073097661340638 0.0093627065028713 39.944690488978 0.01587403125
0.073097661340638 0.0093627065028713 33.907851050285 0.015620125
0.073097661340638 0.0093627065028713 27.869800474774 0.01536628125
0.073097661340638 0.0093627065028713 21.830537718163 0.0151125
0.073097661340638 0.0093627065028713 15.790061734898 0.01485878125
0.073097661340638 0.0093627065028713 9.7483714781667 0.014605125
0.073097661340638 0.0093627065028713 3.7054658999126 0.01435153125
0.073097661340638 0.0093627065028713 -2.5226155256961 0.014098
0.073097661340638 0.0093627065028713 3.7054658999042 0.01435153125
0.073097661340638 0.0093627065028713 9.7483714781646 0.014605125
0.073097661340638 0.0093627065028713 15.790061734894 0.01485878125
0.073097661340638 0.0093627065028713 21.830537718156 0.0151125
0.073097661340638 0.0093627065028713 27.869800474769 0.01536628125
0.073097661340638 0.0093627065028713 33.907851050279 0.015620125
0.073097661340638 0.0093627065028713 39.944690488983 0.01587403125
0.073097661340638 0.0093627065028713 45.980319833927 0.016128
0.073097661340638 0.0093627065028713 52.014740126897 0.01638203125
0.073097661340638 0.0093627065028713 58.04795240844 0.016636125
0.073097661340638 0.0093627065028713 64.079957717849 0.01689028125
0.073097661340638 0.0093627065028713 70.110757093172 0.0171445
0.073806618061362 0.0095363128895956 69.238162477138 0.01739878125
0.07450576759423 0.0097096562853077 68.391816291113 0.017653125
0.075195433496726 0.0098827454470312 67.570477754977 0.01790753125
0.075875922937418 0.010055588651406 66.772985388699 0.018162
0.07654752760179 0.010228193728292 65.998250813029 0.01841653125
0.077210524735769 0.010400568091547 65.245252983607 0.018671125
0.077865178102777 0.010572718767266 64.513032967669 0.01892578125
0.078511738861501 0.010744652419704 63.800689205649 0.0191805
0.079150446373569 0.01091637537512 63.107373204086 0.01943528125
0.079781528946676 0.011087893643725 62.432285615635 0.019690125
0.080405204519659 0.01125921293991 61.77467266536 0.01994503125
0.081021681294741 0.011430338700912 61.133822888173 0.0202
0.081021681384036 0.011430338700912 55.604660001482 0.01994503125
0.081021681384036 0.011430338700912 50.074394525314 0.019690125
0.081021681384036 0.011430338700912 44.543025456588 0.01943528125
0.081021681384036 0.011430338700912 39.010551847775 0.0191805
0.081021681384036 0.011430338700912 33.476972750212 0.01892578125
0.081021681384036 0.011430338700912 27.942287214086 0.018671125
0.081021681384036 0.011430338700912 22.406494288465 0.01841653125
0.081021681384036 0.011430338700912 16.869593021277 0.018162
0.081021681384036 0.011430338700912 11.33158245929 0.01790753125
0.081021681384036 0.011430338700912 5.7924616481539 0.017653125
0.081021681384036 0.011430338700912 0.25222963235615 0.01739878125
0.081021681384036 0.011430338700912 -5.7250153841513 0.0171445
0.081021681384036 0.011430338700912 0.25222963235192 0.01739878125
0.081021681384036 0.011430338700912 5.792461648155 0.017653125
0.081021681384036 0.011430338700912 11.331582459289 0.01790753125
0.081021681384036 0.011430338700912 16.869593021275 0.018162
0.081021681384036 0.011430338700912 22.406494288465 0.01841653125
0.081021681384036 0.011430338700912 27.942287214079 0.018671125
0.081021681384036 0.011430338700912 33.476972750206 0.01892578125
0.081021681384036 0.011430338700912 39.010551847769 0.0191805
0.081021681384036 0.011430338700912 44.543025456587 0.01943528125
0.081021681384036 0.011430338700912 50.074394525318 0.019690125
0.081021681384036 0.011430338700912 55.60466000148 0.01994503125
0.081021681384036 0.011430338700912 61.13382283149 0.0202
0.081631158322086 0.011601276104061 60.509064145618 0.02045503125
0.082233826041071 0.01177203008273 59.899760894138 0.020710125
0.082829866780814 0.011942605341096 59.305311681638 0.02096528125
0.083419455225045 0.012113006367826 58.725146848678 0.0212205
0.084002758844238 0.012283237448777 58.158726414888 0.02147578125
0.084579938296278 0.012453302678778 57.605538135001 0.021731125
0.085151147800569 0.012623205972602 57.065095706294 0.02198653125
0.085716535485215 0.012792951075151 56.536937116343 0.022242
0.086276243712083 0.012962541570964 56.020623115749 0.02249753125
0.086830409379437 0.013131980893064 55.515735806862 0.022753125
0.087379164204995 0.013301272331225 55.021877337302 0.02300878125
0.087922634990907 0.013470419039683 54.538668689163 0.0232645
0.087922635028982 0.013470419039683 49.401247009997 0.02300878125
0.087922635028982 0.013470419039683 44.262803635521 0.022753125
0.087922635028982 0.013470419039683 39.123337670445 0.02249753125
0.087922635028982 0.013470419039683 33.982848239326 0.022242
0.087922635028982 0.013470419039683 28.841334465674 0.02198653125
0.087922635028982 0.013470419039683 23.69879547196 0.021731125
0.087922635028982 0.013470419039683 18.555230379588 0.02147578125
0.087922635028982 0.013470419039683 13.410638308926 0.0212205
0.087922635028982 0.013470419039683 8.2650183793088 0.02096528125
0.087922635028982 0.013470419039683 3.1183697089726 0.020710125
0.087922635028982 0.013470419039683 -2.2026581915885 0.02045503125
0.087922635028982 0.013470419039683 3.1183697089732 0.020710125
0.087922635028982 0.013470419039683 8.2650183793128 0.02096528125
0.087922635028982 0.013470419039683 13.410638308932 0.0212205
0.087922635028982 0.013470419039683 18.555230379592 0.02147578125
0.087922635028982 0.013470419039683 23.698795471965 0.021731125
0.087922635028982 0.013470419039683 28.841334465684 0.02198653125
0.087922635028982 0.013470419039683 33.982848239336 0.022242
0.087922635028982 0.013470419039683 39.123337670458 0.02249753125
0.087922635028982 0.013470419039683 44.262803635533 0.022753125
0.087922635028982 0.013470419039683 49.401247010013 0.02300878125
0.087922635028982 0.013470419039683 54.538668668285 0.0232645
0.088460943871003 0.013639424044345 54.065748556846 0.02352028125
0.08899420854363 0.013808290249535 53.602772304011 0.023776125
0.089522542489181 0.013977020444311 53.14941099519 0.02403203125
0.090046055174109 0.014145617308372 52.705350494969 0.024288
0.090564852243566 0.014314083417614 52.270290628518 0.02454403125
0.091079035701296 0.014482421249325 51.843944400316 0.024800125
0.09158870408003 0.014650633187081 51.426037264477 0.02505628125
0.092093952600811 0.01481872152533 51.016306444562 0.0253125
0.092594873324395 0.014986688473724 50.614500297045 0.02556878125
0.093091555292641 0.015154536161166 50.220377717272 0.025825125
0.093584084662653 0.015322266639646 49.833707582955 0.02608153125
0.094072544834072 0.015489881887853 49.454268232537 0.026338
0.094072544851944 0.015489881887853 44.635401477893 0.02608153125
0.094072544851944 0.015489881887853 39.815579022389 0.025825125
0.094072544851944 0.015489881887853 34.994800041796 0.02556878125
0.094072544851944 0.015489881887853 30.173063719611 0.0253125
0.094072544851944 0.015489881887853 25.350369238348 0.02505628125
0.094072544851944 0.015489881887853 20.526715779538 0.024800125
0.094072544851944 0.015489881887853 15.702102523742 0.02454403125
0.094072544851944 0.015489881887853 10.87652865055 0.024288
0.094072544851944 0.015489881887853 6.0499933385799 0.02403203125
0.094072544851944 0.015489881887853 1.222495765452 0.023776125
0.094072544851944 0.015489881887853 -3.9226327076598 0.02352028125
0.094072544851944 0.015489881887853 1.2224957654548 0.023776125
0.094072544851944 0.015489881887853 6.0499933385816 0.02403203125
0.094072544851944 0.015489881887853 10.876528650553 0.024288
0.094072544851944 0.015489881887853 15.702102523746 0.02454403125
0.094072544851944 0.015489881887853 20.526715779541 0.024800125
0.094072544851944 0.015489881887853 25.350369238352 0.02505628125
0.094072544851944 0.015489881887853 30.17306371962 0.0253125
0.094072544851944 0.015489881887853 34.994800041806 0.02556878125
0.094072544851944 0.015489881887853 39.815579022392 0.025825125
0.094072544851944 0.015489881887853 44.635401477904 0.02608153125
0.094072544851944 0.015489881887853 49.454268223881 0.026338
0.094557016567774 0.015657383814561 49.081846977579 0.02659453125
0.095037578099897 0.015824774261851 48.716239643982 0.026851125
0.09551430524826 0.015992055008133 48.357250142592 0.02710778125
0.095987271513883 0.016159227771006 48.004690065244 0.0273645
0.096456548177214 0.016326294209969 47.658378305085 0.02762128125
0.09692220438881 0.016493255928972 47.318140699888 0.027878125
0.09738430725598 0.016660114478843 46.98380969585 0.02813503125
0.097842921924607 0.016826871359576 46.655224031297 0.028392
0.098298111656884 0.016993528022504 46.332228438601 0.02864903125
0.098749937905351 0.017160085872359 46.014673362955 0.028906125
0.099198460383212 0.01732654626922 45.702414697088 0.02916328125
0.099643737130961 0.01749291053037 45.39531353098 0.0294205
0.099643737139913 0.01749291053037 40.843086095737 0.02916328125
0.099643737139913 0.01749291053037 36.289958352401 0.028906125
0.099643737139913 0.01749291053037 31.735929531045 0.02864903125
0.099643737139913 0.01749291053037 27.180998864691 0.028392
0.099643737139913 0.01749291053037 22.625165585469 0.02813503125
0.099643737139913 0.01749291053037 18.068428924605 0.027878125
0.099643737139913 0.01749291053037 13.510788112387 0.02762128125
0.099643737139913 0.01749291053037 8.9522423782107 0.0273645
0.099643737139913 0.01749291053037 4.3927909505565 0.02710778125
0.099643737139913 0.01749291053037 -0.18263084055763 0.026851125
0.099643737139913 0.01749291053037 4.3927909505535 0.02710778125
0.099643737139913 0.01749291053037 8.9522423782061 0.0273645
0.099643737139913 0.01749291053037 13.51078811238 0.02762128125
0.099643737139913 0.01749291053037 18.068428924598 0.027878125
0.099643737139913 0.01749291053037 22.625165585456 0.02813503125
0.099643737139913 0.01749291053037 27.180998864679 0.028392
0.099643737139913 0.01749291053037 31.735929531031 0.02864903125
0.099643737139913 0.01749291053037 36.289958352394 0.028906125
0.099643737139913 0.01749291053037 40.843086095728 0.02916328125
0.099643737139913 0.01749291053037 45.395313527083 0.0294205
0.10008582458032 0.017659179932052 45.093235915115 0.02967778125
0.10052477761481 0.017825355711143 44.796052636833 0.029935125
0.10096064962706 0.017991439066738 44.503639009216 0.03019253125
0.10139349257425 0.018157431161659 44.215874670652 0.03045
0.10182335703038 0.018323333123895 43.932643395546 0.03070753125
0.10225029223635 0.018489146047965 43.653832914878 0.030965125
0.10267434614781 0.018654870996221 43.379334746054 0.03122278125
0.10309556548048 0.018820509000084 43.109044031883 0.0314805
0.1035139957541 0.018986061061232 42.842859387325 0.03173828125
0.10392968133385 0.019151528152717 42.580682754481 0.031996125
0.10434266547015 0.019316911220045 42.322419264693 0.03225403125
0.10475299033693 0.0194822111822 42.067977107452 0.032512
0.1047529903417 0.0194822111822 37.743830578259 0.03225403125
0.1047529903417 0.0194822111822 33.418831240394 0.031996125
0.1047529903417 0.0194822111822 29.092978368417 0.03173828125
0.1047529903417 0.0194822111822 24.766271237936 0.0314805
0.1047529903417 0.0194822111822 20.438709123703 0.03122278125
0.1047529903417 0.0194822111822 16.110291299592 0.030965125
0.1047529903417 0.0194822111822 11.781017038632 0.03070753125
0.1047529903417 0.0194822111822 7.4508856129901 0.03045
0.1047529903417 0.0194822111822 3.1198962939626 0.03019253125
0.1047529903417 0.0194822111822 -1.3229861643574 0.029935125
0.1047529903417 0.0194822111822 3.1198962939639 0.03019253125
0.1047529903417 0.0194822111822 7.4508856129937 0.03045
0.1047529903417 0.0194822111822 11.781017038637 0.03070753125
0.1047529903417 0.0194822111822 16.110291299594 0.030965125
0.1047529903417 0.0194822111822 20.438709123707 0.03122278125
0.1047529903417 0.0194822111822 24.766271237943 0.0314805
0.1047529903417 0.0194822111822 29.092978368422 0.03173828125
0.1047529903417 0.0194822111822 33.418831240394 0.031996125
0.1047529903417 0.0194822111822 37.743830578253 0.03225403125
0.1047529903417 0.0194822111822 42.067977105561 0.032512
0.10516069706793 0.019647428932618 41.817267405978 0.03277003125
0.10556582579165 0.019812565340127 41.570204098801 0.033028125
0.10596841566468 0.019977621249836 41.326703827182 0.03328628125
0.10636850490398 0.020142597483987 41.086685827758 0.0335445
0.10676613081727 0.020307494842773 40.850071830605 0.03380278125
0.10716132983263 0.020472314105114 40.616785961952 0.034061125
0.10755413752668 0.020637056029408 40.38675465153 0.03431953125
0.1079445886517 0.020801721354241 40.159906544179 0.034578
0.10833271716159 0.020966310799071 39.936172415655 0.03483653125
0.10871855623687 0.021130825064888 39.715485092197 0.035095125
0.10910213830867 0.021295264834834 39.497779373787 0.03535378125
0.10948349508175 0.021459630774808 39.282991960894 0.0356125
0.10948349508435 0.021459630774808 35.157269270317 0.03535378125
0.10948349508435 0.021459630774808 31.030735185805 0.035095125
0.10948349508435 0.021459630774808 26.903389019998 0.03483653125
0.10948349508435 0.021459630774808 22.775230085673 0.034578
0.10948349508435 0.021459630774808 18.646257694767 0.03431953125
0.10948349508435 0.021459630774808 14.516471158447 0.034061125
0.10948349508435 0.021459630774808 10.385869787032 0.03380278125
0.10948349508435 0.021459630774808 6.2544528900421 0.0335445
0.10948349508435 0.021459630774808 2.1222197761807 0.03328628125
0.10948349508435 0.021459630774808 -2.1980622422198 0.033028125
0.10948349508435 0.021459630774808 2.1222197761728 0.03328628125
0.10948349508435 0.021459630774808 6.2544528900366 0.0335445
0.10948349508435 0.021459630774808 10.385869787025 0.03380278125
0.10948349508435 0.021459630774808 14.516471158442 0.034061125
0.10948349508435 0.021459630774808 18.646257694765 0.03431953125
0.10948349508435 0.021459630774808 22.775230085666 0.034578
0.10948349508435 0.021459630774808 26.903389019993 0.03483653125
0.10948349508435 0.021459630774808 31.030735185799 0.035095125
0.10948349508435 0.021459630774808 35.157269270308 0.03535378125
0.10948349508435 0.021459630774808 39.282991959944 0.0356125
0.10986265755655 0.021623923534044 39.07106138455 0.03587128125
0.11023965605082 0.021788143745663 38.861927939246 0.036130125
0.11061452021974 0.021952292027202 38.655533619252 0.03638903125
0.11098727907579 0.022116368981124 38.451822057364 0.036648
0.11135796100774 0.022280375195309 38.250738466401 0.03690703125
0.11172659379891 0.022444311243519 38.052229583256 0.037166125
0.11209320464468 0.022608177685855 37.85624361534 0.03742528125
0.1124578201695 0.022771975069183 37.662730189274 0.0376845
0.11282046644331 0.022935703927559 37.471640301679 0.03794378125
0.11318116899713 0.023099364782622 37.282926272158 0.038203125
0.11353995283817 0.023262958143982 37.096541698199 0.03846253125
0.11389684246482 0.023426484509593 36.912441411723 0.038722
0.11389684246632 0.023426484509593 32.961695172261 0.03846253125
0.11389684246632 0.023426484509593 29.01017413306 0.038203125
0.11389684246632 0.023426484509593 25.057877640036 0.03794378125
0.11389684246632 0.023426484509593 21.104805038846 0.0376845
0.11389684246632 0.023426484509593 17.150955674373 0.03742528125
0.11389684246632 0.023426484509593 13.196328890719 0.037166125
0.11389684246632 0.023426484509593 9.2409240312249 0.03690703125
0.11389684246632 0.023426484509593 5.2847404384642 0.036648
0.11389684246632 0.023426484509593 1.3277774542117 0.03638903125
0.11389684246632 0.023426484509593 -2.8783151882046 0.036130125
0.11389684246632 0.023426484509593 1.3277774542088 0.03638903125
0.11389684246632 0.023426484509593 5.2847404384629 0.036648
0.11389684246632 0.023426484509593 9.2409240312251 0.03690703125
0.11389684246632 0.023426484509593 13.196328890721 0.037166125
0.11389684246632 0.023426484509593 17.150955674376 0.03742528125
0.11389684246632 0.023426484509593 21.104805038852 0.0376845
0.11389684246632 0.023426484509593 25.057877640042 0.03794378125
0.11389684246632 0.023426484509593 29.010174133063 0.038203125
0.11389684246632 0.023426484509593 32.961695172261 0.03846253125
0.11389684246632 0.023426484509593 36.912441411219 0.038722
0.11425186188043 0.023589944366106 36.73058143772 0.03898153125
0.11460503460703 0.023753338189213 36.550918954395 0.039241125
0.11495638369853 0.023916666443979 36.373412254924 0.03950078125
0.11530593175333 0.024079929585157 36.198020710794 0.0397605
0.11565370092678 0.024243128057502 36.024704736463 0.04002028125
0.1159997129428 0.024406262296056 35.853425755629 0.040280125
0.11634398910535 0.024569332726438 35.684146168735 0.04054003125
0.11668655030978 0.024732339765124 35.516829321481 0.0408
0.11702741705311 0.024895283819701 35.351439475088 0.04106003125
0.11736660944465 0.025058165289128 35.187941777188 0.041320125
0.11770414721589 0.025220984563985 35.026302234106 0.04158028125
0.11804004973028 0.025383742026704 34.86648768408 0.0418405
0.11804004973118 0.025383742026704 31.071762851321 0.04158028125
0.11804004973118 0.025383742026704 27.276295908283 0.041320125
0.11804004973118 0.025383742026704 23.480086230483 0.04106003125
0.11804004973118 0.025383742026704 19.683133192976 0.0408
0.11804004973118 0.025383742026704 15.885436170088 0.04054003125
0.11804004973118 0.025383742026704 12.08699453541 0.040280125
0.11804004973118 0.025383742026704 8.2878076617945 0.04002028125
0.11804004973118 0.025383742026704 4.4878749213638 0.0397605
0.11804004973118 0.025383742026704 0.68719568550555 0.03950078125
0.11804004973118 0.025383742026704 -3.4119724853867 0.039241125
0.11804004973118 0.025383742026704 0.68719568550505 0.03950078125
0.11804004973118 0.025383742026704 4.4878749213641 0.0397605
0.11804004973118 0.025383742026704 8.2878076617934 0.04002028125
0.11804004973118 0.025383742026704 12.086994535411 0.040280125
0.11804004973118 0.025383742026704 15.88543617009 0.04054003125
0.11804004973118 0.025383742026704 19.683133192978 0.0408
0.11804004973118 0.025383742026704 23.480086230486 0.04106003125
0.11804004973118 0.025383742026704 27.276295908287 0.041320125
0.11804004973118 0.025383742026704 31.071762851325 0.04158028125
0.11804004973118 0.025383742026704 34.866487683805 0.0418405
0.11837433599242 0.025546438051805 34.708465771585 0.04210078125
0.11870702465744 0.025709073006113 34.552204922396 0.042361125
0.1190381340393 0.025871647248973 34.397674320015 0.04262153125
0.11936768211962 0.02603416113246 34.244843882465 0.042882
0.11969568655602 0.026196615001573 34.093684240125 0.04314253125
0.12002216468966 0.026359009194432 33.944166714606 0.043403125
0.12034713355344 0.026521344042464 33.796263297965 0.04366378125
0.12067060987906 0.026683619870583 33.649946633081 0.0439245
0.12099261010458 0.026845836997361 33.505189994395 0.04418528125
0.12131315038135 0.027007995735203 33.361967269518 0.044446125
0.12163224658074 0.027170096390505 33.220252941503 0.04470703125
0.12194991430095 0.027332139263814 33.080022071563 0.044968
0.1219499143015 0.027332139263814 29.425711204566 0.04470703125
0.1219499143015 0.027332139263814 25.770687695463 0.044446125
0.1219499143015 0.027332139263814 22.114950946378 0.04418528125
0.1219499143015 0.027332139263814 18.458500358913 0.0439245
0.1219499143015 0.027332139263814 14.801335333955 0.04366378125
0.1219499143015 0.027332139263814 11.143455271698 0.043403125
0.1219499143015 0.027332139263814 7.4848595716321 0.04314253125
0.1219499143015 0.027332139263814 3.8255476325501 0.042882
0.1219499143015 0.027332139263814 0.16551885251898 0.04262153125
0.1219499143015 0.027332139263814 -3.8330944849506 0.042361125
0.1219499143015 0.027332139263814 0.16551885252004 0.04262153125
0.1219499143015 0.027332139263814 3.8255476325451 0.042882
0.1219499143015 0.027332139263814 7.4848595716296 0.04314253125
0.1219499143015 0.027332139263814 11.143455271695 0.043403125
0.1219499143015 0.027332139263814 14.801335333953 0.04366378125
0.1219499143015 0.027332139263814 18.458500358904 0.0439245
0.1219499143015 0.027332139263814 22.114950946371 0.04418528125
0.1219499143015 0.027332139263814 25.770687695453 0.044446125
0.1219499143015 0.027332139263814 29.425711204552 0.04470703125
0.1219499143015 0.027332139263814 33.080022071388 0.044968
0.12226616887332 0.02749412464998 32.941250282578 0.04522903125
0.1225810253685 0.027656052838305 32.80391374313 0.045490125
0.12289449860248 0.027817924112685 32.667989152036 0.04575128125
0.12320660314282 0.027979738751748 32.533453723307 0.0460125
0.12351735331371 0.028141497028991 32.400285171991 0.04627378125
0.12382676320214 0.028303199212906 32.268461699994 0.046535125
0.1241348466628 0.02846484556711 32.137961982808 0.04679653125
0.12444161732355 0.028626436350466 32.008765156405 0.047058
0.12474708859043 0.028787971817197 31.880850804699 0.04731953125
0.12505127365262 0.02894945221701 31.754198947354 0.047581125
0.125354185487 0.029110877795198 31.628790028123 0.04784278125
0.12565583686336 0.029272248792752 31.504604903243 0.0481045
0.12565583686367 0.029272248792752 27.977657222006 0.04784278125
0.12565583686367 0.029272248792752 24.450023668174 0.047581125
0.12565583686367 0.029272248792752 20.921703668056 0.04731953125
0.12565583686367 0.029272248792752 17.392696647368 0.047058
0.12565583686367 0.029272248792752 13.863002031152 0.04679653125
0.12565583686367 0.029272248792752 10.332619243794 0.046535125
0.12565583686367 0.029272248792752 6.8015477089969 0.04627378125
0.12565583686367 0.029272248792752 3.269786849786 0.0460125
0.12565583686367 0.029272248792752 -0.28832751620199 0.04575128125
0.12565583686367 0.029272248792752 3.2697868497903 0.0460125
0.12565583686367 0.029272248792752 6.8015477090019 0.04627378125
0.12565583686367 0.029272248792752 10.332619243799 0.046535125
0.12565583686367 0.029272248792752 13.863002031156 0.04679653125
0.12565583686367 0.029272248792752 17.392696647372 0.047058
0.12565583686367 0.029272248792752 20.921703668057 0.04731953125
0.12565583686367 0.029272248792752 24.450023668174 0.047581125
0.12565583686367 0.029272248792752 27.977657222008 0.04784278125
0.12565583686367 0.029272248792752 31.504604903165 0.0481045
0.12595624034815 0.029433565446468 31.381624830757 0.04836628125
0.12625540830956 0.029594827989042 31.259831459539 0.048628125
0.12655335292139 0.029756036649175 31.139206819205 0.04889003125
0.1268500861675 0.029917191651667 31.019733309964 0.049152
0.12714561984559 0.030078293217507 30.901393693079 0.04941403125
0.12743996557131 0.030239341563964 30.784171081452 0.049676125
0.12773313478211 0.030400336904679 30.668048930507 0.04993828125
0.12802513874079 0.030561279449742 30.553011029513 0.0502005
0.12831598853935 0.030722169405783 30.43904149295 0.05046278125
0.12860569510246 0.030883006976045 30.326124752326 0.050725125
0.12889426919089 0.031043792360467 30.214245548137 0.05098753125
0.12918172140473 0.031204525755757 30.103388922192 0.05125
0.12918172140496 0.031204525755757 26.692747188959 0.05098753125
0.12918172140496 0.031204525755757 23.281444062108 0.050725125
0.12918172140496 0.031204525755757 19.869478990006 0.05046278125
0.12918172140496 0.031204525755757 16.456851420458 0.0502005
0.12918172140496 0.031204525755757 13.043560800608 0.04993828125
0.12918172140496 0.031204525755757 9.6296065769574 0.049676125
0.12918172140496 0.031204525755757 6.2149881953825 0.04941403125
0.12918172140496 0.031204525755757 2.7997051010974 0.049152
0.12918172140496 0.031204525755757 -0.67699389473668 0.04889003125
0.12918172140496 0.031204525755757 2.7997051010971 0.049152
0.12918172140496 0.031204525755757 6.2149881953841 0.04941403125
0.12918172140496 0.031204525755757 9.6296065769601 0.049676125
0.12918172140496 0.031204525755757 13.043560800609 0.04993828125
0.12918172140496 0.031204525755757 16.456851420459 0.0502005
0.12918172140496 0.031204525755757 19.869478990009 0.05046278125
0.12918172140496 0.031204525755757 23.281444062111 0.050725125
0.12918172140496 0.031204525755757 26.692747188964 0.05098753125
0.12918172140496 0.031204525755757 30.103388922134 0.05125
0.12946806218702 0.031365207355466 29.993540209943 0.05151253125
