d ep stress_yy total_strain_yy
0 0 0 0
0 0 17.198244487881 0.00025003125000012
0 0 34.39297999966 0.00050012499999996
0 0 51.584209604609 0.00075028124999998
0 0 68.771936368333 0.0010004999999998
0 0 85.956163352665 0.00125078125
0 0 103.13689361576 0.0015011250000001
0 0 120.31413021198 0.0017515312499999
0 0 137.48787619204 0.0020019999999999
0 0 154.6581346029 0.0022525312500001
0 0 171.8249084878 0.0025031249999999
0 0 188.98820088633 0.00275378125
0 0 206.14801483436 0.0030044999999999
0 0 223.30435336401 0.00325528125
0 0 240.45721950387 0.003506125
0 0 257.60661627864 0.0037570312499999
0 0 274.75254670956 0.004008
0 0 291.89501381403 0.00425903125
0 0 309.03402060582 0.0045101249999999
0 6.4457905061269e-05 319.53935798863 0.0047612812500001
0 0.00022991744591078 319.65283527624 0.0050124999999999
0 0.00039533606930504 319.76628437425 0.0052637812499999
0 0.00056071379553602 319.87970529669 0.0055151250000001
0 0.00072605064488062 319.99309805756 0.0057665312499999
0 0.00089134663760105 320.10646267084 0.006018
0 0.001056601793944 320.21979915053 0.0062695312500001
0 0.0012218161341414 320.33310751055 0.0065211249999999
0 0.0013869896784099 320.44638776494 0.00677278125
0 0.0015521224469512 320.55963992759 0.0070244999999999
0 0.0017172144599523 320.67286401246 0.00727628125
0 0.0018822657375847 320.78606003349 0.0075281250000001
0 0.0020472763000051 320.89922800455 0.0077800312499999
0 0.0022122461673556 321.01236793956 0.008032
0 0.0022122461673556 303.93231498687 0.0077800312499999
0 0.0022122461673556 286.84882661457 0.0075281250000001
0 0.0022122461673556 269.76189984112 0.00727628125
0 0.0022122461673556 252.67153168134 0.0070244999999999
0 0.0022122461673556 235.57771914655 0.00677278125
0 0.0022122461673556 218.48045924431 0.0065211249999999
0 0.0022122461673556 201.37974897869 0.0062695312500001
0 0.0022122461673556 184.27558534998 0.006018
0 0.0022122461673556 167.16796535495 0.0057665312499999
0 0.0022122461673556 150.05688598668 0.0055151250000001
0 0.0022122461673556 132.94234423459 0.0052637812499999
0 0.0022122461673556 115.82433708443 0.0050124999999999
0 0.0022122461673556 98.702861518415 0.0047612812500001
0 0.0022122461673556 81.577914514876 0.0045101249999999
0 0.0022122461673556 64.44949304872 0.00425903125
0 0.0022122461673556 47.317594090925 0.004008
0 0.0022122461673556 30.182214609003 0.0037570312499999
0 0.0022122461673556 13.043351566724 0.003506125
0 0.0022122461673556 -4.0989980759318 0.00325528125
0 0.0022122461673556 13.043351566724 0.003506125
0 0.0022122461673556 30.182214609021 0.0037570312499999
0 0.0022122461673556 47.317594090948 0.004008
0 0.0022122461673556 64.449493048726 0.00425903125
0 0.0022122461673556 81.577914514888 0.0045101249999999
0 0.0022122461673556 98.702861518432 0.0047612812500001
0 0.0022122461673556 115.82433708448 0.0050124999999999
0 0.0022122461673556 132.94234423464 0.0052637812499999
0 0.0022122461673556 150.05688598669 0.0055151250000001
0 0.0022122461673556 167.16796535498 0.0057665312499999
0 0.0022122461673556 184.27558534999 0.006018
0 0.0022122461673556 201.3797489787 0.0062695312500001
0 0.0022122461673556 218.48045924432 0.0065211249999999
0 0.0022122461673556 235.57771914656 0.00677278125
0 0.0022122461673556 252.67153168134 0.0070244999999999
0 0.0022122461673556 269.76189984112 0.00727628125
0 0.0022122461673556 286.84882661458 0.0075281250000001
0 0.0022122461673556 303.93231498685 0.0077800312499999
0 0.0022122461673556 321.01236793955 0.008032
0 0.0023771753597624 321.12547985248 0.0082840312500001
0 0.0025420638973377 321.23856375714 0.008536125
0 0.0027069118001788 321.3516196674 0.0087882812500001
0 0.002871719088367 321.46464759719 0.0090404999999999
0 0.00303648578197 321.57764756033 0.00929278125
0 0.0032012119010399 321.69061957065 0.009545125
0 0.0033658974656137 321.80356364203 0.0097975312499999
0 0.0035305424957146 321.91647978822 0.01005
0 0.0036951470113497 322.02936802312 0.01030253125
0 0.003859711032512 322.14222836047 0.010555125
0 0.0040242345791797 322.25506081413 0.01080778125
0 0.0041887176713158 322.36786539781 0.0110605
0 0.0041887176713158 305.33843665622 0.01080778125
0 0.0041887176713158 288.30559296235 0.010555125
0 0.0041887176713158 271.26933136129 0.01030253125
0 0.0041887176713158 254.22964889454 0.01005
0 0.0041887176713158 237.18654259998 0.0097975312499999
0 0.0041887176713158 220.14000951203 0.009545125
0 0.0041887176713158 203.0900466614 0.00929278125
0 0.0041887176713158 186.03665107525 0.0090404999999999
0 0.0041887176713158 168.97981977716 0.0087882812500001
0 0.0041887176713158 151.91954978711 0.008536125
0 0.0041887176713158 134.85583812146 0.0082840312500001
0 0.0041887176713158 117.78868179296 0.008032
0 0.0041887176713158 100.71807781074 0.0077800312499999
0 0.0041887176713158 83.644023180387 0.0075281250000001
0 0.0041887176713158 66.566514903685 0.00727628125
0 0.0041887176713158 49.485549978978 0.0070244999999999
0 0.0041887176713158 32.401125400857 0.00677278125
0 0.0041887176713158 15.313238160307 0.0065211249999999
0 0.0041887176713158 -1.7781147553244 0.0062695312500001
0 0.0041887176713158 15.313238160307 0.0065211249999999
0 0.0041887176713158 32.401125400858 0.00677278125
0 0.0041887176713158 49.48554997898 0.0070244999999999
0 0.0041887176713158 66.566514903712 0.00727628125
0 0.0041887176713158 83.644023180369 0.0075281250000001
0 0.0041887176713158 100.71807781074 0.0077800312499999
0 0.0041887176713158 117.78868179296 0.008032
0 0.0041887176713158 134.85583812145 0.0082840312500001
0 0.0041887176713158 151.91954978707 0.008536125
0 0.0041887176713158 168.97981977714 0.0087882812500001
0 0.0041887176713158 186.03665107522 0.0090404999999999
0 0.0041887176713158 203.09004666137 0.00929278125
0 0.0041887176713158 220.14000951201 0.009545125
0 0.0041887176713158 237.18654259999 0.0097975312499999
0 0.0041887176713158 254.22964889453 0.01005
0 0.0041887176713158 271.26933136127 0.01030253125
0 0.0041887176713158 288.30559296234 0.010555125
0 0.0041887176713158 305.33843665619 0.01080778125
0 0.0041887176713158 322.36786539779 0.0110605
0 0.0043531603288688 322.48064212533 0.01131328125
0 0.0045175625717726 322.59339101047 0.011566125
0 0.004681924419946 322.70611206692 0.01181903125
0 0.0048462458932933 322.81880530848 0.012072
0 0.0050105270117042 322.93147074885 0.01232503125
0 0.005174767795053 323.04410840179 0.012578125
0 0.0053389682632001 323.15671828097 0.01283128125
0 0.0055031284359908 323.26930040012 0.0130845
0 0.0056672483332562 323.38185477291 0.01333778125
0 0.0058313279748118 323.49438141307 0.013591125
0 0.0059953673804594 323.6068803342 0.01384453125
0 0.0061593665699859 323.71935155 0.014098
0 0.0061593665699859 306.74024761613 0.01384453125
0 0.0061593665699859 289.75774901529 0.013591125
0 0.0061593665699859 272.77185281882 0.01333778125
0 0.0061593665699859 255.78255609456 0.0130845
0 0.0061593665699859 238.78985590677 0.01283128125
0 0.0061593665699859 221.79374931619 0.012578125
0 0.0061593665699859 204.79423338003 0.01232503125
0 0.0061593665699859 187.79130515193 0.012072
0 0.0061593665699859 170.78496168199 0.01181903125
0 0.0061593665699859 153.7752000168 0.011566125
0 0.0061593665699859 136.76201719928 0.01131328125
0 0.0061593665699859 119.74541026888 0.0110605
0 0.0061593665699859 102.72537626142 0.01080778125
0 0.0061593665699859 85.701912209153 0.010555125
0 0.0061593665699859 68.675015140784 0.01030253125
0 0.0061593665699859 51.644682081353 0.01005
0 0.0061593665699859 34.610910052404 0.0097975312499999
0 0.0061593665699859 17.573696071807 0.009545125
0 0.0061593665699859 0.53303715384484 0.00929278125
0 0.0061593665699859 -16.511069690786 0.0090404999999999
0 0.0061593665699859 0.53303715384053 0.00929278125
0 0.0061593665699859 17.573696071795 0.009545125
0 0.0061593665699859 34.610910052398 0.0097975312499999
0 0.0061593665699859 51.644682081353 0.01005
0 0.0061593665699859 68.675015140781 0.01030253125
0 0.0061593665699859 85.701912209167 0.010555125
0 0.0061593665699859 102.72537626144 0.01080778125
0 0.0061593665699859 119.74541026888 0.0110605
0 0.0061593665699859 136.76201719932 0.01131328125
0 0.0061593665699859 153.77520001685 0.011566125
0 0.0061593665699859 170.78496168204 0.01181903125
0 0.0061593665699859 187.79130515197 0.012072
0 0.0061593665699859 204.79423338005 0.01232503125
0 0.0061593665699859 221.7937493162 0.012578125
0 0.0061593665699859 238.78985590678 0.01283128125
0 0.0061593665699859 255.78255609456 0.0130845
0 0.0061593665699859 272.77185281886 0.01333778125
0 0.0061593665699859 289.75774901534 0.013591125
0 0.0061593665699859 306.74024761618 0.01384453125
0 0.0061593665699859 323.71935155008 0.014098
0 0.0063233255631641 323.83179507416 0.01435153125
0 0.0064872443797502 323.94421092026 0.014605125
0 0.0066511230394882 324.05659910197 0.01485878125
0 0.0068149615621062 324.16895963289 0.0151125
0 0.0069787599673187 324.28129252664 0.01536628125
0 0.0071425182748249 324.39359779682 0.015620125
0 0.0073062365043093 324.50587545703 0.01587403125
0 0.0074699146754428 324.61812552084 0.016128
0 0.0076335528078811 324.73034800182 0.01638203125
0 0.0077971509212654 324.84254291355 0.016636125
0 0.0079607090352233 324.95471026957 0.01689028125
0 0.0081242271693666 325.06685008343 0.0171445
0 0.0081242271693666 308.13777420272 0.01689028125
0 0.0081242271693666 291.20532376044 0.016636125
0 0.0081242271693666 274.2694958539 0.01638203125
0 0.0081242271693666 257.33028757692 0.016128
0 0.0081242271693666 240.38769601978 0.01587403125
0 0.0081242271693666 223.44171826937 0.015620125
0 0.0081242271693666 206.49235140895 0.01536628125
0 0.0081242271693666 189.53959251842 0.0151125
0 0.0081242271693666 172.58343867408 0.01485878125
0 0.0081242271693666 155.62388694869 0.014605125
0 0.0081242271693666 138.66093441156 0.01435153125
0 0.0081242271693666 121.69457812843 0.014098
0 0.0081242271693666 104.72481516152 0.01384453125
0 0.0081242271693666 87.75164256952 0.013591125
0 0.0081242271693666 70.775057407557 0.01333778125
0 0.0081242271693666 53.795056727234 0.0130845
0 0.0081242271693666 36.811637576646 0.01283128125
0 0.0081242271693666 19.824797000217 0.012578125
0 0.0081242271693666 2.8345320389049 0.01232503125
0 0.0081242271693666 -14.15916026993 0.012072
0 0.0081242271693666 2.8345320389029 0.01232503125
0 0.0081242271693666 19.824797000195 0.012578125
0 0.0081242271693666 36.811637576616 0.01283128125
0 0.0081242271693666 53.795056727213 0.0130845
0 0.0081242271693666 70.775057407529 0.01333778125
0 0.0081242271693666 87.751642569489 0.013591125
0 0.0081242271693666 104.72481516148 0.01384453125
0 0.0081242271693666 121.69457812839 0.014098
0 0.0081242271693666 138.66093441152 0.01435153125
0 0.0081242271693666 155.62388694864 0.014605125
0 0.0081242271693666 172.58343867403 0.01485878125
0 0.0081242271693666 189.53959251838 0.0151125
0 0.0081242271693666 206.49235140891 0.01536628125
0 0.0081242271693666 223.4417182693 0.015620125
0 0.0081242271693666 240.38769601969 0.01587403125
0 0.0081242271693666 257.33028757684 0.016128
0 0.0081242271693666 274.26949585383 0.01638203125
0 0.0081242271693666 291.20532376038 0.016636125
0 0.0081242271693666 308.13777420268 0.01689028125
0 0.0081242271693666 325.06685008337 0.0171445
0 0.0082877053432932 325.17896236864 0.01739878125
0 0.0084511435765879 325.29104713874 0.017653125
0 0.0086145418888191 325.40310440724 0.01790753125
0 0.0087779002995419 325.51513418764 0.018162
0 0.0089412188282967 325.62713649342 0.01841653125
0 0.0091044974946094 325.73911133808 0.018671125
0 0.0092677363179921 325.85105873509 0.01892578125
0 0.0094309353179419 325.9629786979 0.0191805
0 0.0095940945139422 326.07487123997 0.01943528125
0 0.0097572139254618 326.18673637474 0.019690125
0 0.0099202935719548 326.29857411564 0.01994503125
0.0034498006698694 0.010079719296796 310.83241227602 0.0202
0.0034498024501458 0.010079719296796 294.77689968932 0.01994503125
0.0034498024501458 0.010079719296796 278.71820432238 0.019690125
0.0034498024501458 0.010079719296796 262.65631534498 0.01943528125
0.0034498024501458 0.010079719296796 246.59123001729 0.0191805
0.0034498024501458 0.010079719296796 230.52294559616 0.01892578125
0.0034498024501458 0.010079719296796 214.45145933514 0.018671125
0.0034498024501458 0.010079719296796 198.37676848453 0.01841653125
0.0034498024501458 0.010079719296796 182.2988702913 0.018162
0.0034498024501458 0.010079719296796 166.2177619991 0.01790753125
0.0034498024501458 0.010079719296796 150.13344084837 0.017653125
0.0034498024501458 0.010079719296796 134.04590407612 0.01739878125
0.0034498024501458 0.010079719296796 117.95514891612 0.0171445
0.0034498024501458 0.010079719296796 101.86117259885 0.01689028125
0.0034498024501458 0.010079719296796 85.763972351373 0.016636125
0.0034498024501458 0.010079719296796 69.663545397479 0.01638203125
0.0034498024501458 0.010079719296796 53.559888957634 0.016128
0.0034498024501458 0.010079719296796 37.453000248937 0.01587403125
0.0034498024501458 0.010079719296796 21.342876485174 0.015620125
0.0034498024501458 0.010079719296796 5.2295148767334 0.01536628125
0.0034498024501458 0.010079719296796 -10.947616627318 0.0151125
0.0034498024501458 0.010079719296796 5.2295148767368 0.01536628125
0.0034498024501458 0.010079719296796 21.342876485182 0.015620125
0.0034498024501458 0.010079719296796 37.453000248931 0.01587403125
0.0034498024501458 0.010079719296796 53.559888957619 0.016128
0.0034498024501458 0.010079719296796 69.663545397473 0.01638203125
0.0034498024501458 0.010079719296796 85.763972351354 0.016636125
0.0034498024501458 0.010079719296796 101.86117259885 0.01689028125
0.0034498024501458 0.010079719296796 117.95514891613 0.0171445
0.0034498024501458 0.010079719296796 134.04590407612 0.01739878125
0.0034498024501458 0.010079719296796 150.13344084836 0.017653125
0.0034498024501458 0.010079719296796 166.21776199911 0.01790753125
0.0034498024501458 0.010079719296796 182.2988702913 0.018162
0.0034498024501458 0.010079719296796 198.37676848455 0.01841653125
0.0034498024501458 0.010079719296796 214.45145933516 0.018671125
0.0034498024501458 0.010079719296796 230.52294559618 0.01892578125
0.0034498024501458 0.010079719296796 246.59123001732 0.0191805
0.0034498024501458 0.010079719296796 262.65631534502 0.01943528125
0.0034498024501458 0.010079719296796 278.7182043224 0.019690125
0.0034498024501458 0.010079719296796 294.77689968933 0.01994503125
0.0034498024501458 0.010079719296796 310.83240418243 0.0202
0.0077652431891241 0.010228921004029 293.02623800627 0.02045503125
0.011502982039869 0.010372657442497 278.86809954821 0.020710125
0.014860063334965 0.010513270503666 267.04392425952 0.02096528125
0.017940982854778 0.010651938132588 256.86554700302 0.0212205
0.020809197693308 0.010789336535501 247.92042979581 0.02147578125
0.023506693558696 0.010925888058178 239.93904887977 0.021731125
0.026062989523043 0.011061872175621 232.73430606995 0.02198653125
0.028499794105822 0.011197481748252 226.17035066267 0.022242
0.030833636589632 0.011332854117386 220.14505417609 0.02249753125
0.033077456266258 0.011468089466192 214.57948253195 0.022753125
0.035241613837448 0.011603262237532 209.41123237239 0.02300878125
0.037334577745935 0.011738428339776 204.58999696725 0.0232645
0.037334579869257 0.011738428339776 194.98355216858 0.02300878125
0.037334579869257 0.011738428339776 185.37521179393 0.022753125
0.037334579869257 0.011738428339776 175.76496768637 0.02249753125
0.037334579869257 0.011738428339776 166.15281821773 0.022242
0.037334579869257 0.011738428339776 156.53876175791 0.02198653125
0.037334579869257 0.011738428339776 146.92279667483 0.021731125
0.037334579869257 0.011738428339776 137.30492133449 0.02147578125
0.037334579869257 0.011738428339776 127.68513410094 0.0212205
0.037334579869257 0.011738428339776 118.06343333624 0.02096528125
0.037334579869257 0.011738428339776 108.43981740053 0.020710125
0.037334579869257 0.011738428339776 98.814284651968 0.02045503125
0.037334579869257 0.011738428339776 89.186833446754 0.0202
0.037334579869257 0.011738428339776 79.557462139105 0.01994503125
0.037334579869257 0.011738428339776 69.926169081326 0.019690125
0.037334579869257 0.011738428339776 60.292952623666 0.01943528125
0.037334579869257 0.011738428339776 50.657811114467 0.0191805
0.037334579869257 0.011738428339776 41.02074290007 0.01892578125
0.037334579869257 0.011738428339776 31.381746324814 0.018671125
0.037334579869257 0.011738428339776 21.740819731099 0.01841653125
0.037334579869257 0.011738428339776 12.097961459283 0.018162
0.037334579869257 0.011738428339776 2.4531698477926 0.01790753125
0.037334579869257 0.011738428339776 -7.5611973989036 0.017653125
0.037334579869257 0.011738428339776 2.453169847791 0.01790753125
0.037334579869257 0.011738428339776 12.097961459281 0.018162
0.037334579869257 0.011738428339776 21.740819731089 0.01841653125
0.037334579869257 0.011738428339776 31.381746324812 0.018671125
0.037334579869257 0.011738428339776 41.020742900069 0.01892578125
0.037334579869257 0.011738428339776 50.657811114474 0.0191805
0.037334579869257 0.011738428339776 60.292952623679 0.01943528125
0.037334579869257 0.011738428339776 69.926169081332 0.019690125
0.037334579869257 0.011738428339776 79.557462139118 0.01994503125
0.037334579869257 0.011738428339776 89.186833446758 0.0202
0.037334579869257 0.011738428339776 98.814284651976 0.02045503125
0.037334579869257 0.011738428339776 108.43981740054 0.020710125
0.037334579869257 0.011738428339776 118.06343333626 0.02096528125
0.037334579869257 0.011738428339776 127.68513410095 0.0212205
0.037334579869257 0.011738428339776 137.30492133451 0.02147578125
0.037334579869257 0.011738428339776 146.92279667486 0.021731125
0.037334579869257 0.011738428339776 156.53876175793 0.02198653125
0.037334579869257 0.011738428339776 166.15281821776 0.022242
0.037334579869257 0.011738428339776 175.76496768639 0.02249753125
0.037334579869257 0.011738428339776 185.37521179395 0.022753125
0.037334579869257 0.011738428339776 194.9835521686 0.02300878125
0.037334579869257 0.011738428339776 204.58999043657 0.0232645
0.03936332677605 0.011873630892531 200.07469448554 0.02352028125
0.041333764680415 0.012008902509929 195.83114450708 0.023776125
0.043250899649814 0.012144268479572 191.83067486576 0.02403203125
0.045119034632689 0.012279748334211 188.04895927773 0.024288
0.046941900459614 0.012415357143675 184.46516887293 0.02454403125
0.048722758189153 0.012551106481081 181.06132356636 0.024800125
0.050464478961963 0.012687005155648 177.82178883448 0.02505628125
0.052169607133897 0.012823059775441 174.73288012271 0.0253125
0.053840410787109 0.012959275184291 171.78254815484 0.02556878125
0.05547892257716 0.013095654804407 168.96012590725 0.025825125
0.057086973089493 0.013232200907411 166.25612317481 0.02608153125
0.058666218322542 0.013368914830453 163.66205828964 0.026338
0.058666220249287 0.013368914830453 156.66414302568 0.02608153125
0.058666220249287 0.013368914830453 149.66485188382 0.025825125
0.058666220249287 0.013368914830453 142.66417916192 0.02556878125
0.058666220249287 0.013368914830453 135.66212368208 0.0253125
0.058666220249287 0.013368914830453 128.65868426497 0.02505628125
0.058666220249287 0.013368914830453 121.65385972987 0.024800125
0.058666220249287 0.013368914830453 114.64764889467 0.02454403125
0.058666220249287 0.013368914830453 107.64005057582 0.024288
0.058666220249287 0.013368914830453 100.63106358837 0.02403203125
0.058666220249287 0.013368914830453 93.620686745974 0.023776125
0.058666220249287 0.013368914830453 86.608918860849 0.02352028125
0.058666220249287 0.013368914830453 79.595758743805 0.0232645
0.058666220249287 0.013368914830453 72.581205204243 0.02300878125
0.058666220249287 0.013368914830453 65.565257050122 0.022753125
0.058666220249287 0.013368914830453 58.547913088001 0.02249753125
0.058666220249287 0.013368914830453 51.529172122997 0.022242
0.058666220249287 0.013368914830453 44.509032958806 0.02198653125
0.058666220249287 0.013368914830453 37.487494397717 0.021731125
0.058666220249287 0.013368914830453 30.464555240535 0.02147578125
0.058666220249287 0.013368914830453 23.440214286687 0.0212205
0.058666220249287 0.013368914830453 16.414470334151 0.02096528125
0.058666220249287 0.013368914830453 9.387322179445 0.020710125
0.058666220249287 0.013368914830453 2.3587686176732 0.02045503125
0.058666220249287 0.013368914830453 -5.0015254776998 0.0202
0.058666220249287 0.013368914830453 2.358768617675 0.02045503125
0.058666220249287 0.013368914830453 9.3873221794434 0.020710125
0.058666220249287 0.013368914830453 16.414470334156 0.02096528125
0.058666220249287 0.013368914830453 23.440214286694 0.0212205
0.058666220249287 0.013368914830453 30.464555240542 0.02147578125
0.058666220249287 0.013368914830453 37.487494397725 0.021731125
0.058666220249287 0.013368914830453 44.509032958816 0.02198653125
0.058666220249287 0.013368914830453 51.52917212301 0.022242
0.058666220249287 0.013368914830453 58.547913088017 0.02249753125
0.058666220249287 0.013368914830453 65.565257050137 0.022753125
0.058666220249287 0.013368914830453 72.581205204264 0.02300878125
0.058666220249287 0.013368914830453 79.595758743826 0.0232645
0.058666220249287 0.013368914830453 86.608918860866 0.02352028125
0.058666220249287 0.013368914830453 93.620686745987 0.023776125
0.058666220249287 0.013368914830453 100.63106358838 0.02403203125
0.058666220249287 0.013368914830453 107.64005057583 0.024288
0.058666220249287 0.013368914830453 114.64764889468 0.02454403125
0.058666220249287 0.013368914830453 121.65385972988 0.024800125
0.058666220249287 0.013368914830453 128.65868426497 0.02505628125
0.058666220249287 0.013368914830453 135.66212368208 0.0253125
0.058666220249287 0.013368914830453 142.66417916193 0.02556878125
0.058666220249287 0.013368914830453 149.66485188382 0.025825125
0.058666220249287 0.013368914830453 156.66414302568 0.02608153125
0.058666220249287 0.013368914830453 163.66205376403 0.026338
0.060218162515896 0.013505797149789 161.17031915001 0.02659453125
0.061744177256037 0.013642847821068 158.77404759068 0.026851125
0.063245505769717 0.01378006648812 156.46706087784 0.02710778125
0.064723324259566 0.013917451791069 154.24369549567 0.0273645
0.066178681353554 0.014055002629629 152.0988513036 0.02762128125
0.067612556689518 0.014192717429051 150.02785570057 0.027878125
0.06902585727489 0.014330594393054 148.02643244714 0.02813503125
0.07041942495563 0.014468631547181 146.09065803211 0.028392
0.071794042918838 0.014606826774877 144.216923914 0.02864903125
0.07315044137596 0.014745177847626 142.40190371077 0.028906125
0.074489302552689 0.014883682450116 140.64252457087 0.02916328125
0.075811265083169 0.015022338201361 138.93594210366 0.0294205
0.075811273150894 0.015022338201361 133.44816577944 0.02916328125
0.075811273150894 0.015022338201361 127.95932624412 0.028906125
0.075811273150894 0.015022338201361 122.4694072622 0.02864903125
0.075811273150894 0.015022338201361 116.97840791621 0.028392
0.075811273150894 0.015022338201361 111.48632728759 0.02813503125
0.075811273150894 0.015022338201361 105.99316445668 0.027878125
0.075811273150894 0.015022338201361 100.49891850274 0.02762128125
0.075811273150894 0.015022338201361 95.00358850392 0.0273645
0.075811273150894 0.015022338201361 89.507173537303 0.02710778125
0.075811273150894 0.015022338201361 84.009672678838 0.026851125
0.075811273150894 0.015022338201361 78.51108500341 0.02659453125
0.075811273150894 0.015022338201361 73.011409584787 0.026338
0.075811273150894 0.015022338201361 67.510645495628 0.02608153125
0.075811273150894 0.015022338201361 62.008791807508 0.025825125
0.075811273150894 0.015022338201361 56.505847590876 0.02556878125
0.075811273150894 0.015022338201361 51.001811915095 0.0253125
0.075811273150894 0.015022338201361 45.496683848414 0.02505628125
0.075811273150894 0.015022338201361 39.990462457951 0.024800125
0.075811273150894 0.015022338201361 34.483146809752 0.02454403125
0.075811273150894 0.015022338201361 28.974735968715 0.024288
0.075811273150894 0.015022338201361 23.465228998646 0.02403203125
0.075811273150894 0.015022338201361 17.954624962238 0.023776125
0.075811273150894 0.015022338201361 12.44292292104 0.02352028125
0.075811273150894 0.015022338201361 6.9301219355023 0.0232645
0.075811273150894 0.015022338201361 1.4162210649686 0.02300878125
0.075811273150894 0.015022338201361 -4.4365296786228 0.022753125
0.075811273150894 0.015022338201361 1.4162210649743 0.02300878125
0.075811273150894 0.015022338201361 6.9301219355105 0.0232645
0.075811273150894 0.015022338201361 12.44292292105 0.02352028125
0.075811273150894 0.015022338201361 17.954624962242 0.023776125
0.075811273150894 0.015022338201361 23.465228998653 0.02403203125
0.075811273150894 0.015022338201361 28.974735968719 0.024288
0.075811273150894 0.015022338201361 34.483146809745 0.02454403125
0.075811273150894 0.015022338201361 39.990462457951 0.024800125
0.075811273150894 0.015022338201361 45.496683848406 0.02505628125
0.075811273150894 0.015022338201361 51.001811915095 0.0253125
0.075811273150894 0.015022338201361 56.505847590874 0.02556878125
0.075811273150894 0.015022338201361 62.008791807508 0.025825125
0.075811273150894 0.015022338201361 67.51064549563 0.02608153125
0.075811273150894 0.015022338201361 73.011409584793 0.026338
0.075811273150894 0.015022338201361 78.51108500342 0.02659453125
0.075811273150894 0.015022338201361 84.00967267885 0.026851125
0.075811273150894 0.015022338201361 89.507173537309 0.02710778125
0.075811273150894 0.015022338201361 95.003588503924 0.0273645
0.075811273150894 0.015022338201361 100.49891850274 0.02762128125
0.075811273150894 0.015022338201361 105.99316445668 0.027878125
0.075811273150894 0.015022338201361 111.48632728759 0.02813503125
0.075811273150894 0.015022338201361 116.97840791621 0.028392
0.075811273150894 0.015022338201361 122.4694072622 0.02864903125
0.075811273150894 0.015022338201361 127.95932624412 0.028906125
0.075811273150894 0.015022338201361 133.44816577944 0.02916328125
0.075811273150894 0.015022338201361 138.93592678455 0.0294205
0.077116927896501 0.015161142672387 137.27951834388 0.02967778125
0.078406853663169 0.015300093401101 135.67080232143 0.029935125
0.079681571868893 0.015439187904664 134.10751286352 0.03019253125
0.080941581544857 0.01557842369011 132.58752335157 0.03045
0.08218735372622 0.015717798263009 131.10884813798 0.03070753125
0.083419333651434 0.015857309134858 129.6696304349 0.030965125
0.084637942744398 0.01599695382921 128.26813147539 0.03122278125
0.085843580401341 0.016136729886819 126.90272079379 0.0314805
0.087036625609045 0.016276634869864 125.57186748498 0.03173828125
0.08821743840945 0.01641666636549 124.27413233104 0.031996125
0.089386361232005 0.016556821988679 123.00816068907 0.03225403125
0.090543720105929 0.0166970993846 121.77267605619 0.032512
0.090543724745545 0.0166970993846 117.27853503551 0.03225403125
0.090543724745545 0.0166970993846 112.78352133182 0.031996125
0.090543724745545 0.0166970993846 108.28762681694 0.03173828125
0.090543724745545 0.0166970993846 103.79085074454 0.0314805
0.090543724745545 0.0166970993846 99.293192367392 0.03122278125
0.090543724745545 0.0166970993846 94.794650937375 0.030965125
0.090543724745545 0.0166970993846 90.295225705508 0.03070753125
0.090543724745545 0.0166970993846 85.794915921875 0.03045
0.090543724745545 0.0166970993846 81.293720835719 0.03019253125
0.090543724745545 0.0166970993846 76.79163969538 0.029935125
0.090543724745545 0.0166970993846 72.28867174829 0.02967778125
0.090543724745545 0.0166970993846 67.784816241005 0.0294205
0.090543724745545 0.0166970993846 63.280072419187 0.02916328125
0.090543724745545 0.0166970993846 58.774439527589 0.028906125
0.090543724745545 0.0166970993846 54.26791681009 0.02864903125
0.090543724745545 0.0166970993846 49.76050350965 0.028392
0.090543724745545 0.0166970993846 45.252198868354 0.02813503125
0.090543724745545 0.0166970993846 40.743002127361 0.027878125
0.090543724745545 0.0166970993846 36.232912526939 0.02762128125
0.090543724745545 0.0166970993846 31.721929306461 0.0273645
0.090543724745545 0.0166970993846 27.210051704397 0.02710778125
0.090543724745545 0.0166970993846 22.697278958294 0.026851125
0.090543724745545 0.0166970993846 18.183610304816 0.02659453125
0.090543724745545 0.0166970993846 13.669044979703 0.026338
0.090543724745545 0.0166970993846 9.1535822177871 0.02608153125
0.090543724745545 0.0166970993846 4.6372212530116 0.025825125
0.090543724745545 0.0166970993846 0.11996131837727 0.02556878125
0.090543724745545 0.0166970993846 -4.7949993992332 0.0253125
0.090543724745545 0.0166970993846 0.1199613183749 0.02556878125
0.090543724745545 0.0166970993846 4.6372212530096 0.025825125
0.090543724745545 0.0166970993846 9.1535822177846 0.02608153125
0.090543724745545 0.0166970993846 13.669044979697 0.026338
0.090543724745545 0.0166970993846 18.183610304813 0.02659453125
0.090543724745545 0.0166970993846 22.697278958288 0.026851125
0.090543724745545 0.0166970993846 27.210051704393 0.02710778125
0.090543724745545 0.0166970993846 31.721929306454 0.0273645
0.090543724745545 0.0166970993846 36.232912526937 0.02762128125
0.090543724745545 0.0166970993846 40.743002127359 0.027878125
0.090543724745545 0.0166970993846 45.252198868358 0.02813503125
0.090543724745545 0.0166970993846 49.760503509661 0.028392
0.090543724745545 0.0166970993846 54.267916810098 0.02864903125
0.090543724745545 0.0166970993846 58.774439527601 0.028906125
0.090543724745545 0.0166970993846 63.280072419195 0.02916328125
0.090543724745545 0.0166970993846 67.784816241013 0.0294205
0.090543724745545 0.0166970993846 72.288671748298 0.02967778125
0.090543724745545 0.0166970993846 76.79163969539 0.029935125
0.090543724745545 0.0166970993846 81.293720835729 0.03019253125
0.090543724745545 0.0166970993846 85.794915921884 0.03045
0.090543724745545 0.0166970993846 90.295225705512 0.03070753125
0.090543724745545 0.0166970993846 94.794650937378 0.030965125
0.090543724745545 0.0166970993846 99.293192367399 0.03122278125
0.090543724745545 0.0166970993846 103.79085074455 0.0314805
0.090543724745545 0.0166970993846 108.28762681695 0.03173828125
0.090543724745545 0.0166970993846 112.78352133183 0.031996125
0.090543724745545 0.0166970993846 117.27853503552 0.03225403125
0.090543724745545 0.0166970993846 121.77266867351 0.032512
0.091689825765896 0.016837496230495 120.56647423479 0.03277003125
0.092824974662676 0.016978010237185 119.38841803178 0.033028125
0.093949449888493 0.017118639150227 118.23743243418 0.03328628125
0.095063522025487 0.017259380750804 117.1125002109 0.0335445
0.09616744992619 0.017400232856342 116.01265789483 0.03380278125
0.097261481430127 0.017541193320959 114.9369921092 0.034061125
0.098345854025872 0.0176822600357 113.8846361999 0.03431953125
0.099420795461786 0.017823430928639 112.85476714592 0.034578
0.10048652430945 0.017964703964862 111.84660272119 0.03483653125
0.10154325048681 0.018106077146323 110.85939888126 0.035095125
0.10259117574286 0.018247548511605 109.89244735536 0.03535378125
0.10363049410634 0.018389116135635 108.94507342583 0.0356125
0.10363049677587 0.018389116135635 105.15521787591 0.03535378125
0.10363049677587 0.018389116135635 101.36462645428 0.035095125
0.10363049677587 0.018389116135635 97.573294885626 0.03483653125
0.10363049677587 0.018389116135635 93.781222544694 0.034578
0.10363049677587 0.018389116135635 89.98840880551 0.03431953125
0.10363049677587 0.018389116135635 86.194853041359 0.034061125
0.10363049677587 0.018389116135635 82.400554624769 0.03380278125
0.10363049677587 0.018389116135635 78.605512927545 0.0335445
0.10363049677587 0.018389116135635 74.809727320747 0.03328628125
0.10363049677587 0.018389116135635 71.013197174679 0.033028125
0.10363049677587 0.018389116135635 67.215921858917 0.03277003125
0.10363049677587 0.018389116135635 63.417900742283 0.032512
0.10363049677587 0.018389116135635 59.61913319285 0.03225403125
0.10363049677587 0.018389116135635 55.819618577957 0.031996125
0.10363049677587 0.018389116135635 52.019356264174 0.03173828125
0.10363049677587 0.018389116135635 48.218345617341 0.0314805
0.10363049677587 0.018389116135635 44.416586002535 0.03122278125
0.10363049677587 0.018389116135635 40.614076784088 0.030965125
0.10363049677587 0.018389116135635 36.810817325575 0.03070753125
0.10363049677587 0.018389116135635 33.006806989818 0.03045
0.10363049677587 0.018389116135635 29.202045138885 0.03019253125
0.10363049677587 0.018389116135635 25.396531134098 0.029935125
0.10363049677587 0.018389116135635 21.590264335996 0.02967778125
0.10363049677587 0.018389116135635 17.783244104384 0.0294205
0.10363049677587 0.018389116135635 13.975469798307 0.02916328125
0.10363049677587 0.018389116135635 10.166940776036 0.028906125
0.10363049677587 0.018389116135635 6.35765639509 0.02864903125
0.10363049677587 0.018389116135635 2.5476160122232 0.028392
0.10363049677587 0.018389116135635 -1.3843106345418 0.02813503125
0.10363049677587 0.018389116135635 2.5476160122228 0.028392
0.10363049677587 0.018389116135635 6.3576563950888 0.02864903125
0.10363049677587 0.018389116135635 10.166940776036 0.028906125
0.10363049677587 0.018389116135635 13.975469798308 0.02916328125
0.10363049677587 0.018389116135635 17.783244104384 0.0294205
0.10363049677587 0.018389116135635 21.590264335993 0.02967778125
0.10363049677587 0.018389116135635 25.396531134091 0.029935125
0.10363049677587 0.018389116135635 29.202045138881 0.03019253125
0.10363049677587 0.018389116135635 33.006806989812 0.03045
0.10363049677587 0.018389116135635 36.810817325566 0.03070753125
0.10363049677587 0.018389116135635 40.614076784077 0.030965125
0.10363049677587 0.018389116135635 44.416586002527 0.03122278125
0.10363049677587 0.018389116135635 48.218345617333 0.0314805
0.10363049677587 0.018389116135635 52.019356264168 0.03173828125
0.10363049677587 0.018389116135635 55.819618577947 0.031996125
0.10363049677587 0.018389116135635 59.619133192846 0.03225403125
0.10363049677587 0.018389116135635 63.417900742277 0.032512
0.10363049677587 0.018389116135635 67.215921858912 0.03277003125
0.10363049677587 0.018389116135635 71.013197174677 0.033028125
0.10363049677587 0.018389116135635 74.809727320746 0.03328628125
0.10363049677587 0.018389116135635 78.605512927545 0.0335445
0.10363049677587 0.018389116135635 82.400554624771 0.03380278125
0.10363049677587 0.018389116135635 86.19485304136 0.034061125
0.10363049677587 0.018389116135635 89.988408805513 0.03431953125
0.10363049677587 0.018389116135635 93.781222544695 0.034578
0.10363049677587 0.018389116135635 97.573294885629 0.03483653125
0.10363049677587 0.018389116135635 101.36462645428 0.035095125
0.10363049677587 0.018389116135635 105.15521787592 0.03535378125
0.10363049677587 0.018389116135635 108.94506977502 0.0356125
0.10466139230397 0.018530778129302 108.01663387505 0.03587128125
0.10568405014951 0.01867253263903 107.10651508679 0.036130125
0.10669864090548 0.018814377846321 106.21413128812 0.03638903125
0.10770533162143 0.018956311967236 105.33892291864 0.036648
0.108704283449 0.019098333251874 104.48035511741 0.03690703125
0.10969565193669 0.019240439983815 103.63791631661 0.037166125
0.11067958730669 0.019382630479525 102.81111693243 0.03742528125
0.11165623471189 0.019524903087794 101.99948814803 0.0376845
0.11262573447926 0.019667256189122 101.20258077701 0.03794378125
0.113588222337 0.019809688195109 100.41996420409 0.038203125
0.11454382962778 0.019952197547861 99.651225395908 0.03846253125
0.11549268350986 0.020094782719373 98.895967975835 0.038722
0.11549268507607 0.020094782719373 95.631032158481 0.03846253125
0.11549268507607 0.020094782719373 92.365463342821 0.038203125
0.11549268507607 0.020094782719373 89.099259118396 0.03794378125
0.11549268507607 0.020094782719373 85.832418950073 0.0376845
0.11549268507607 0.020094782719373 82.564942302084 0.03742528125
0.11549268507607 0.020094782719373 79.296828638027 0.037166125
0.11549268507607 0.020094782719373 76.028077420871 0.03690703125
0.11549268507607 0.020094782719373 72.758688112954 0.036648
0.11549268507607 0.020094782719373 69.488660175982 0.03638903125
0.11549268507607 0.020094782719373 66.217993071022 0.036130125
0.11549268507607 0.020094782719373 62.946686258503 0.03587128125
0.11549268507607 0.020094782719373 59.674739198228 0.0356125
0.11549268507607 0.020094782719373 56.402151349359 0.03535378125
0.11549268507607 0.020094782719373 53.128922170411 0.035095125
0.11549268507607 0.020094782719373 49.855051119281 0.03483653125
0.11549268507607 0.020094782719373 46.580537653205 0.034578
0.11549268507607 0.020094782719373 43.305381228783 0.03431953125
0.11549268507607 0.020094782719373 40.02958130199 0.034061125
0.11549268507607 0.020094782719373 36.753137328135 0.03380278125
0.11549268507607 0.020094782719373 33.476048761896 0.0335445
0.11549268507607 0.020094782719373 30.198315057313 0.03328628125
0.11549268507607 0.020094782719373 26.919935667769 0.033028125
0.11549268507607 0.020094782719373 23.640910046002 0.03277003125
0.11549268507607 0.020094782719373 20.361237644118 0.032512
0.11549268507607 0.020094782719373 17.080917913553 0.03225403125
0.11549268507607 0.020094782719373 13.799950305115 0.031996125
0.11549268507607 0.020094782719373 10.51833426894 0.03173828125
0.11549268507607 0.020094782719373 7.2360692545374 0.0314805
0.11549268507607 0.020094782719373 3.9531547107526 0.03122278125
0.11549268507607 0.020094782719373 0.66959008577573 0.030965125
0.11549268507607 0.020094782719373 -2.8763142540916 0.03070753125
0.11549268507607 0.020094782719373 0.66959008577542 0.030965125
0.11549268507607 0.020094782719373 3.9531547107546 0.03122278125
0.11549268507607 0.020094782719373 7.2360692545396 0.0314805
0.11549268507607 0.020094782719373 10.518334268942 0.03173828125
0.11549268507607 0.020094782719373 13.799950305114 0.031996125
0.11549268507607 0.020094782719373 17.080917913554 0.03225403125
0.11549268507607 0.020094782719373 20.361237644119 0.032512
0.11549268507607 0.020094782719373 23.640910046006 0.03277003125
0.11549268507607 0.020094782719373 26.919935667772 0.033028125
0.11549268507607 0.020094782719373 30.198315057315 0.03328628125
0.11549268507607 0.020094782719373 33.476048761898 0.0335445
0.11549268507607 0.020094782719373 36.753137328132 0.03380278125
0.11549268507607 0.020094782719373 40.029581301986 0.034061125
0.11549268507607 0.020094782719373 43.305381228778 0.03431953125
0.11549268507607 0.020094782719373 46.580537653195 0.034578
0.11549268507607 0.020094782719373 49.855051119274 0.03483653125
0.11549268507607 0.020094782719373 53.128922170405 0.035095125
0.11549268507607 0.020094782719373 56.402151349351 0.03535378125
0.11549268507607 0.020094782719373 59.674739198217 0.0356125
0.11549268507607 0.020094782719373 62.946686258492 0.03587128125
0.11549268507607 0.020094782719373 66.217993071008 0.036130125
0.11549268507607 0.020094782719373 69.488660175969 0.03638903125
0.11549268507607 0.020094782719373 72.758688112944 0.036648
0.11549268507607 0.020094782719373 76.028077420861 0.03690703125
0.11549268507607 0.020094782719373 79.296828638018 0.037166125
0.11549268507607 0.020094782719373 82.564942302077 0.03742528125
0.11549268507607 0.020094782719373 85.832418950065 0.0376845
0.11549268507607 0.020094782719373 89.099259118388 0.03794378125
0.11549268507607 0.020094782719373 92.365463342814 0.038203125
0.11549268507607 0.020094782719373 95.631032158475 0.03846253125
0.11549268507607 0.020094782719373 98.895966099884 0.038722
0.11643490714604 0.020237442210917 98.153811358642 0.03898153125
0.11737061988162 0.020380174552444 97.424389940205 0.039241125
0.11829993741222 0.020522978301972 96.707352338055 0.03950078125
0.11922297194203 0.020665852045 96.002360679121 0.0397605
0.12013983233289 0.020808794393917 95.309089931365 0.04002028125
0.12105062424599 0.020951803987416 94.627227275263 0.040280125
0.12195545027523 0.021094879489922 93.956471513423 0.04054003125
0.12285441007328 0.021238019591032 93.296532515149 0.0408
0.12374760047116 0.021381223004958 92.647130693438 0.04106003125
0.12463511559182 0.021524488469983 92.007996511954 0.041320125
0.12551704695761 0.021667814747921 91.378870020329 0.04158028125
0.12639348359173 0.021811200623605 90.759500416236 0.0418405
0.12639348453391 0.021811200623605 87.900424271493 0.04158028125
0.12639348453391 0.021811200623605 85.040795086119 0.041320125
0.12639348453391 0.021811200623605 82.180611392084 0.04106003125
0.12639348453391 0.021811200623605 79.319872723792 0.0408
0.12639348453391 0.021811200623605 76.458578615093 0.04054003125
0.12639348453391 0.021811200623605 73.596728599304 0.040280125
0.12639348453391 0.021811200623605 70.734322209181 0.04002028125
0.12639348453391 0.021811200623605 67.871358976931 0.0397605
0.12639348453391 0.021811200623605 65.007838434226 0.03950078125
0.12639348453391 0.021811200623605 62.143760112171 0.039241125
0.12639348453391 0.021811200623605 59.27912354133 0.03898153125
0.12639348453391 0.021811200623605 56.413928251713 0.038722
0.12639348453391 0.021811200623605 53.548173772769 0.03846253125
0.12639348453391 0.021811200623605 50.681859633413 0.038203125
0.12639348453391 0.021811200623605 47.814985361982 0.03794378125
0.12639348453391 0.021811200623605 44.947550486276 0.0376845
0.12639348453391 0.021811200623605 42.079554533533 0.03742528125
0.12639348453391 0.021811200623605 39.210997030434 0.037166125
0.12639348453391 0.021811200623605 36.341877503102 0.03690703125
0.12639348453391 0.021811200623605 33.472195477108 0.036648
0.12639348453391 0.021811200623605 30.601950477457 0.03638903125
0.12639348453391 0.021811200623605 27.731142028598 0.036130125
0.12639348453391 0.021811200623605 24.859769654418 0.03587128125
0.12639348453391 0.021811200623605 21.987832878246 0.0356125
0.12639348453391 0.021811200623605 19.115331222847 0.03535378125
0.12639348453391 0.021811200623605 16.242264210415 0.035095125
0.12639348453391 0.021811200623605 13.3686313626 0.03483653125
0.12639348453391 0.021811200623605 10.494432200467 0.034578
0.12639348453391 0.021811200623605 7.6196662445282 0.03431953125
0.12639348453391 0.021811200623605 4.7443330147298 0.034061125
0.12639348453391 0.021811200623605 1.8684320304479 0.03380278125
0.12639348453391 0.021811200623605 -1.1122890157838 0.0335445
0.12639348453391 0.021811200623605 1.8684320304485 0.03380278125
0.12639348453391 0.021811200623605 4.7443330147317 0.034061125
0.12639348453391 0.021811200623605 7.6196662445291 0.03431953125
0.12639348453391 0.021811200623605 10.494432200469 0.034578
0.12639348453391 0.021811200623605 13.368631362599 0.03483653125
0.12639348453391 0.021811200623605 16.242264210415 0.035095125
0.12639348453391 0.021811200623605 19.115331222845 0.03535378125
0.12639348453391 0.021811200623605 21.987832878247 0.0356125
0.12639348453391 0.021811200623605 24.859769654424 0.03587128125
0.12639348453391 0.021811200623605 27.731142028602 0.036130125
0.12639348453391 0.021811200623605 30.601950477461 0.03638903125
0.12639348453391 0.021811200623605 33.472195477115 0.036648
0.12639348453391 0.021811200623605 36.341877503107 0.03690703125
0.12639348453391 0.021811200623605 39.210997030439 0.037166125
0.12639348453391 0.021811200623605 42.079554533537 0.03742528125
0.12639348453391 0.021811200623605 44.94755048628 0.0376845
0.12639348453391 0.021811200623605 47.814985361987 0.03794378125
0.12639348453391 0.021811200623605 50.681859633417 0.038203125
0.12639348453391 0.021811200623605 53.548173772777 0.03846253125
0.12639348453391 0.021811200623605 56.413928251722 0.038722
0.12639348453391 0.021811200623605 59.27912354134 0.03898153125
0.12639348453391 0.021811200623605 62.143760112185 0.039241125
0.12639348453391 0.021811200623605 65.007838434238 0.03950078125
0.12639348453391 0.021811200623605 67.871358976947 0.0397605
0.12639348453391 0.021811200623605 70.734322209195 0.04002028125
0.12639348453391 0.021811200623605 73.59672859932 0.040280125
0.12639348453391 0.021811200623605 76.458578615111 0.04054003125
0.12639348453391 0.021811200623605 79.319872723808 0.0408
0.12639348453391 0.021811200623605 82.1806113921 0.04106003125
0.12639348453391 0.021811200623605 85.040795086139 0.041320125
0.12639348453391 0.021811200623605 87.900424271511 0.04158028125
0.12639348453391 0.021811200623605 90.759499413273 0.0418405
0.12726451211574 0.02195464490436 90.149645630982 0.04210078125
0.12813021684078 0.022098146419507 89.549071939122 0.042361125
0.12899067985547 0.022241704019874 88.957553588542 0.04262153125
0.12984598110877 0.022385316577309 88.374872451159 0.042882
0.13069619848931 0.02252898298421 87.80081769196 0.04314253125
0.13154140048606 0.022672702289882 87.235190645974 0.043403125
0.13238167616759 0.022816473148193 86.677783544724 0.04366378125
0.13321709000546 0.022960294652108 86.128411034995 0.0439245
0.13404771236551 0.023104165771732 85.586888481207 0.04418528125
0.13487361189602 0.02324808549553 85.053037129568 0.044446125
0.13569485558743 0.023392052829914 84.526683867401 0.04470703125
0.13651150882894 0.023536066798849 84.007660994833 0.044968
0.13651151487835 0.023536066798849 81.471350725222 0.04470703125
0.13651151487835 0.023536066798849 78.93455641935 0.044446125
0.13651151487835 0.023536066798849 76.397271876001 0.04418528125
0.13651151487835 0.023536066798849 73.859496684781 0.0439245
0.13651151487835 0.023536066798849 71.321230434818 0.04366378125
0.13651151487835 0.023536066798849 68.782472714742 0.043403125
0.13651151487835 0.023536066798849 66.243223112714 0.04314253125
0.13651151487835 0.023536066798849 63.703481216415 0.042882
0.13651151487835 0.023536066798849 61.163246613032 0.04262153125
0.13651151487835 0.023536066798849 58.622518889283 0.042361125
0.13651151487835 0.023536066798849 56.081297631384 0.04210078125
0.13651151487835 0.023536066798849 53.53958242508 0.0418405
0.13651151487835 0.023536066798849 50.997372855629 0.04158028125
0.13651151487835 0.023536066798849 48.454668507791 0.041320125
0.13651151487835 0.023536066798849 45.911468965856 0.04106003125
0.13651151487835 0.023536066798849 43.36777381361 0.0408
0.13651151487835 0.023536066798849 40.82358263436 0.04054003125
0.13651151487835 0.023536066798849 38.278895010929 0.040280125
0.13651151487835 0.023536066798849 35.733710525633 0.04002028125
0.13651151487835 0.023536066798849 33.188028760312 0.0397605
0.13651151487835 0.023536066798849 30.641849296314 0.03950078125
0.13651151487835 0.023536066798849 28.095171714488 0.039241125
0.13651151487835 0.023536066798849 25.547995595198 0.03898153125
0.13651151487835 0.023536066798849 23.000320518312 0.038722
0.13651151487835 0.023536066798849 20.452146063198 0.03846253125
0.13651151487835 0.023536066798849 17.90347180874 0.038203125
0.13651151487835 0.023536066798849 15.354297333319 0.03794378125
0.13651151487835 0.023536066798849 12.804622214819 0.0376845
0.13651151487835 0.023536066798849 10.254446030643 0.03742528125
0.13651151487835 0.023536066798849 7.7037683576732 0.037166125
0.13651151487835 0.023536066798849 5.1525887723095 0.03690703125
0.13651151487835 0.023536066798849 2.6009068504497 0.036648
0.13651151487835 0.023536066798849 0.048722169011622 0.03638903125
0.13651151487835 0.023536066798849 -2.7693910957144 0.036130125
0.13651151487835 0.023536066798849 0.048722167487114 0.03638903125
0.13651151487835 0.023536066798849 2.6009068504475 0.036648
0.13651151487835 0.023536066798849 5.1525887723072 0.03690703125
0.13651151487835 0.023536066798849 7.7037683576724 0.037166125
0.13651151487835 0.023536066798849 10.254446030646 0.03742528125
0.13651151487835 0.023536066798849 12.804622214823 0.0376845
0.13651151487835 0.023536066798849 15.354297333321 0.03794378125
0.13651151487835 0.023536066798849 17.903471808741 0.038203125
0.13651151487835 0.023536066798849 20.452146063201 0.03846253125
0.13651151487835 0.023536066798849 23.000320518314 0.038722
0.13651151487835 0.023536066798849 25.547995595201 0.03898153125
0.13651151487835 0.023536066798849 28.095171714492 0.039241125
0.13651151487835 0.023536066798849 30.641849296317 0.03950078125
0.13651151487835 0.023536066798849 33.188028760313 0.0397605
0.13651151487835 0.023536066798849 35.733710525632 0.04002028125
0.13651151487835 0.023536066798849 38.278895010926 0.040280125
0.13651151487835 0.023536066798849 40.823582634358 0.04054003125
0.13651151487835 0.023536066798849 43.367773813609 0.0408
0.13651151487835 0.023536066798849 45.911468965852 0.04106003125
0.13651151487835 0.023536066798849 48.454668507786 0.041320125
0.13651151487835 0.023536066798849 50.997372855625 0.04158028125
0.13651151487835 0.023536066798849 53.539582425075 0.0418405
0.13651151487835 0.023536066798849 56.08129763138 0.04210078125
0.13651151487835 0.023536066798849 58.622518889279 0.042361125
0.13651151487835 0.023536066798849 61.163246613027 0.04262153125
0.13651151487835 0.023536066798849 63.70348121641 0.042882
0.13651151487835 0.023536066798849 66.243223112709 0.04314253125
0.13651151487835 0.023536066798849 68.782472714734 0.043403125
0.13651151487835 0.023536066798849 71.32123043481 0.04366378125
0.13651151487835 0.023536066798849 73.859496684776 0.0439245
0.13651151487835 0.023536066798849 76.397271875995 0.04418528125
0.13651151487835 0.023536066798849 78.934556419342 0.044446125
0.13651151487835 0.023536066798849 81.471350725216 0.04470703125
0.13651151487835 0.023536066798849 84.007655203537 0.044968
0.13732363546289 0.023680126443461 83.495806007506 0.04522903125
0.13813129783665 0.02382423082166 82.990961390126 0.045490125
0.13893455685216 0.02396837900777 82.492974420019 0.04575128125
0.1397334720135 0.024112570092168 82.001696980045 0.0460125
0.14052810147248 0.024256803180933 81.516985380459 0.04627378125
0.14131850207215 0.024401077395503 81.038700189247 0.046535125
0.14210472938842 0.024545391872342 80.566706070439 0.04679653125
0.14288683777034 0.024689745762612 80.100871629733 0.047058
0.14366488037849 0.024834138231853 79.641069267355 0.04731953125
0.14443890922151 0.024978568459681 79.18717503779 0.047581125
0.14520897518992 0.025123035639514 78.739068516656 0.04784278125
0.14597512809753 0.02526753897814 78.296632668026 0.0481045
0.14597513219166 0.02526753897814 76.022831036111 0.04784278125
0.14597513219166 0.02526753897814 73.748595306547 0.047581125
0.14597513219166 0.02526753897814 71.473921555196 0.04731953125
0.14597513219166 0.02526753897814 69.198809416469 0.047058
0.14597513219166 0.02526753897814 66.923258524344 0.04679653125
0.14597513219166 0.02526753897814 64.647268512378 0.046535125
0.14597513219166 0.02526753897814 62.370839013687 0.04627378125
0.14597513219166 0.02526753897814 60.093969660976 0.0460125
0.14597513219166 0.02526753897814 57.816660086512 0.04575128125
0.14597513219166 0.02526753897814 55.538909922128 0.045490125
0.14597513219166 0.02526753897814 53.260718799236 0.04522903125
0.14597513219166 0.02526753897814 50.982086348811 0.044968
0.14597513219166 0.02526753897814 48.703012201403 0.04470703125
0.14597513219166 0.02526753897814 46.423495987123 0.044446125
0.14597513219166 0.02526753897814 44.143537335646 0.04418528125
0.14597513219166 0.02526753897814 41.86313587623 0.0439245
0.14597513219166 0.02526753897814 39.582291237685 0.04366378125
0.14597513219166 0.02526753897814 37.301003048388 0.043403125
0.14597513219166 0.02526753897814 35.019270936286 0.04314253125
0.14597513219166 0.02526753897814 32.737094528889 0.042882
0.14597513219166 0.02526753897814 30.45447345327 0.04262153125
0.14597513219166 0.02526753897814 28.171407336059 0.042361125
0.14597513219166 0.02526753897814 25.887895803458 0.04210078125
0.14597513219166 0.02526753897814 23.60393848123 0.0418405
0.14597513219166 0.02526753897814 21.319534994697 0.04158028125
0.14597513219166 0.02526753897814 19.034684968737 0.041320125
0.14597513219166 0.02526753897814 16.749388027793 0.04106003125
0.14597513219166 0.02526753897814 14.463643795873 0.0408
0.14597513219166 0.02526753897814 12.177451896528 0.04054003125
0.14597513219166 0.02526753897814 9.8908119528888 0.040280125
0.14597513219166 0.02526753897814 7.6037235876236 0.04002028125
0.14597513219166 0.02526753897814 5.3161864229717 0.0397605
0.14597513219166 0.02526753897814 3.0282000807231 0.03950078125
0.14597513219166 0.02526753897814 0.73976418221922 0.039241125
0.14597513219166 0.02526753897814 -1.7167115852992 0.03898153125
0.14597513219166 0.02526753897814 0.7397641822191 0.039241125
0.14597513219166 0.02526753897814 3.0282000807252 0.03950078125
0.14597513219166 0.02526753897814 5.3161864229781 0.0397605
0.14597513219166 0.02526753897814 7.6037235876325 0.04002028125
0.14597513219166 0.02526753897814 9.8908119529002 0.040280125
0.14597513219166 0.02526753897814 12.17745189654 0.04054003125
0.14597513219166 0.02526753897814 14.463643795881 0.0408
0.14597513219166 0.02526753897814 16.7493880278 0.04106003125
0.14597513219166 0.02526753897814 19.034684968742 0.041320125
0.14597513219166 0.02526753897814 21.319534994702 0.04158028125
0.14597513219166 0.02526753897814 23.603938481238 0.0418405
0.14597513219166 0.02526753897814 25.887895803468 0.04210078125
0.14597513219166 0.02526753897814 28.171407336065 0.042361125
0.14597513219166 0.02526753897814 30.454473453275 0.04262153125
0.14597513219166 0.02526753897814 32.737094528895 0.042882
0.14597513219166 0.02526753897814 35.019270936294 0.04314253125
0.14597513219166 0.02526753897814 37.301003048395 0.043403125
0.14597513219166 0.02526753897814 39.582291237694 0.04366378125
0.14597513219166 0.02526753897814 41.863135876238 0.0439245
0.14597513219166 0.02526753897814 44.143537335655 0.04418528125
0.14597513219166 0.02526753897814 46.42349598713 0.044446125
0.14597513219166 0.02526753897814 48.703012201409 0.04470703125
0.14597513219166 0.02526753897814 50.982086348816 0.044968
0.14597513219166 0.02526753897814 53.260718799241 0.04522903125
0.14597513219166 0.02526753897814 55.53890992213 0.045490125
0.14597513219166 0.02526753897814 57.816660086513 0.04575128125
0.14597513219166 0.02526753897814 60.093969660978 0.0460125
0.14597513219166 0.02526753897814 62.37083901369 0.04627378125
0.14597513219166 0.02526753897814 64.64726851238 0.046535125
0.14597513219166 0.02526753897814 66.923258524347 0.04679653125
0.14597513219166 0.02526753897814 69.198809416471 0.047058
0.14597513219166 0.02526753897814 71.473921555198 0.04731953125
0.14597513219166 0.02526753897814 73.748595306549 0.047581125
0.14597513219166 0.02526753897814 76.022831036114 0.04784278125
0.14597513219166 0.02526753897814 78.29662910906 0.0481045
0.14673741670275 0.025412077695638 77.859753729018 0.04836628125
0.14749588874732 0.025556651024963 77.4283210882 0.048628125
0.14825059098474 0.025701258211704 77.002227174812 0.04889003125
0.14900156920928 0.025845898513818 76.581367351683 0.049152
0.14974886828384 0.025990571201371 76.165639812771 0.04941403125
0.15049253216676 0.026135275556283 75.754945485172 0.049676125
0.15123260393743 0.026280010872092 75.349187935261 0.04993828125
0.15196912582169 0.026424776453694 74.948273278419 0.0502005
0.15270213921524 0.026569571617128 74.552110093125 0.05046278125
0.1534316847072 0.026714395689333 74.160609337981 0.050725125
0.15415780210204 0.026859248007934 73.773684272622 0.05098753125
0.1548805304412 0.027004127921019 73.391250381544 0.05125
0.15488053326721 0.027004127921019 71.334881546562 0.05098753125
0.15488053326721 0.027004127921019 69.278120469808 0.050725125
0.15488053326721 0.027004127921019 67.220964574321 0.05046278125
0.15488053326721 0.027004127921019 65.163413531546 0.0502005
0.15488053326721 0.027004127921019 63.105467012548 0.04993828125
0.15488053326721 0.027004127921019 61.047124687998 0.049676125
0.15488053326721 0.027004127921019 58.9883862282 0.04941403125
0.15488053326721 0.027004127921019 56.929251303063 0.049152
0.15488053326721 0.027004127921019 54.869719582112 0.04889003125
0.15488053326721 0.027004127921019 52.809790734494 0.048628125
0.15488053326721 0.027004127921019 50.749464428957 0.04836628125
0.15488053326721 0.027004127921019 48.688740333881 0.0481045
0.15488053326721 0.027004127921019 46.627618117246 0.04784278125
0.15488053326721 0.027004127921019 44.566097446648 0.047581125
0.15488053326721 0.027004127921019 42.504177989298 0.04731953125
0.15488053326721 0.027004127921019 40.441859412016 0.047058
0.15488053326721 0.027004127921019 38.379141381233 0.04679653125
0.15488053326721 0.027004127921019 36.316023562996 0.046535125
0.15488053326721 0.027004127921019 34.252505622954 0.04627378125
0.15488053326721 0.027004127921019 32.18858722637 0.0460125
0.15488053326721 0.027004127921019 30.124268038119 0.04575128125
0.15488053326721 0.027004127921019 28.059547722676 0.045490125
0.15488053326721 0.027004127921019 25.994425944136 0.04522903125
0.15488053326721 0.027004127921019 23.928902366192 0.044968
0.15488053326721 0.027004127921019 21.862976652149 0.04470703125
0.15488053326721 0.027004127921019 19.796648464913 0.044446125
0.15488053326721 0.027004127921019 17.729917466997 0.04418528125
0.15488053326721 0.027004127921019 15.662783320528 0.0439245
0.15488053326721 0.027004127921019 13.595245687228 0.04366378125
0.15488053326721 0.027004127921019 11.527304228425 0.043403125
0.15488053326721 0.027004127921019 9.4589586050525 0.04314253125
0.15488053326721 0.027004127921019 7.3902084776488 0.042882
0.15488053326721 0.027004127921019 5.3210535063516 0.04262153125
0.15488053326721 0.027004127921019 3.2514933509026 0.042361125
0.15488053326721 0.027004127921019 1.1815276706386 0.04210078125
0.15488053326721 0.027004127921019 -0.98661573664474 0.0418405
0.15488053326721 0.027004127921019 1.1815276706384 0.04210078125
0.15488053326721 0.027004127921019 3.2514933509019 0.042361125
0.15488053326721 0.027004127921019 5.3210535063541 0.04262153125
0.15488053326721 0.027004127921019 7.3902084776529 0.042882
0.15488053326721 0.027004127921019 9.4589586050578 0.04314253125
0.15488053326721 0.027004127921019 11.527304228429 0.043403125
0.15488053326721 0.027004127921019 13.595245687232 0.04366378125
0.15488053326721 0.027004127921019 15.662783320532 0.0439245
0.15488053326721 0.027004127921019 17.729917467001 0.04418528125
0.15488053326721 0.027004127921019 19.796648464916 0.044446125
0.15488053326721 0.027004127921019 21.86297665215 0.04470703125
0.15488053326721 0.027004127921019 23.928902366195 0.044968
0.15488053326721 0.027004127921019 25.994425944139 0.04522903125
0.15488053326721 0.027004127921019 28.059547722679 0.045490125
0.15488053326721 0.027004127921019 30.124268038122 0.04575128125
0.15488053326721 0.027004127921019 32.188587226371 0.0460125
0.15488053326721 0.027004127921019 34.252505622956 0.04627378125
0.15488053326721 0.027004127921019 36.316023562997 0.046535125
0.15488053326721 0.027004127921019 38.379141381236 0.04679653125
0.15488053326721 0.027004127921019 40.44185941202 0.047058
0.15488053326721 0.027004127921019 42.5041779893 0.04731953125
0.15488053326721 0.027004127921019 44.566097446652 0.047581125
0.15488053326721 0.027004127921019 46.62761811725 0.04784278125
0.15488053326721 0.027004127921019 48.688740333886 0.0481045
0.15488053326721 0.027004127921019 50.749464428964 0.04836628125
0.15488053326721 0.027004127921019 52.809790734499 0.048628125
0.15488053326721 0.027004127921019 54.869719582119 0.04889003125
0.15488053326721 0.027004127921019 56.929251303066 0.049152
0.15488053326721 0.027004127921019 58.988386228203 0.04941403125
0.15488053326721 0.027004127921019 61.047124687999 0.049676125
0.15488053326721 0.027004127921019 63.105467012548 0.04993828125
0.15488053326721 0.027004127921019 65.163413531546 0.0502005
0.15488053326721 0.027004127921019 67.220964574323 0.05046278125
0.15488053326721 0.027004127921019 69.27812046981 0.050725125
0.15488053326721 0.027004127921019 71.334881546563 0.05098753125
0.15488053326721 0.027004127921019 73.391248132762 0.05125
0.15559990802384 0.027149034786929 73.013225301088 0.05151253125
