d ep stress_yy total_strain_yy
0 0 0 0
0 0 17.198244487881 0.00025003125000012
0 0 34.39297999966 0.00050012499999996
0 0 51.584209604609 0.00075028124999998
0 0 68.771936368333 0.0010004999999998
0 0 85.956163352665 0.00125078125
0 0 103.13689361576 0.0015011250000001
0 0 120.31413021198 0.0017515312499999
0 0 137.48787619204 0.0020019999999999
0 0 154.6581346029 0.0022525312500001
0 0 171.8249084878 0.0025031249999999
0 0 188.98820088633 0.00275378125
0 0 206.14801483436 0.0030044999999999
0 0 223.30435336401 0.00325528125
0 0 240.45721950387 0.003506125
0 0 257.60661627864 0.0037570312499999
0 0 274.75254670956 0.004008
0 0 291.89501381403 0.00425903125
0 0 309.03402060582 0.0045101249999999
0 6.4457905061269e-05 319.53935798863 0.0047612812500001
0 0.00022991744591078 319.65283527624 0.0050124999999999
0 0.00039533606930504 319.76628437425 0.0052637812499999
0 0.00056071379553602 319.87970529669 0.0055151250000001
0 0.00072605064488062 319.99309805756 0.0057665312499999
0 0.00089134663760105 320.10646267084 0.006018
0 0.001056601793944 320.21979915053 0.0062695312500001
0 0.0012218161341414 320.33310751055 0.0065211249999999
0 0.0013869896784099 320.44638776494 0.00677278125
0 0.0015521224469512 320.55963992759 0.0070244999999999
0 0.0017172144599523 320.67286401246 0.00727628125
0 0.0018822657375847 320.78606003349 0.0075281250000001
0 0.0020472763000051 320.89922800455 0.0077800312499999
0 0.0022122461673556 321.01236793956 0.008032
0 0.0022122461673556 303.93231498687 0.0077800312499999
0 0.0022122461673556 286.84882661457 0.0075281250000001
0 0.0022122461673556 269.76189984112 0.00727628125
0 0.0022122461673556 252.67153168134 0.0070244999999999
0 0.0022122461673556 235.57771914655 0.00677278125
0 0.0022122461673556 218.48045924431 0.0065211249999999
0 0.0022122461673556 201.37974897869 0.0062695312500001
0 0.0022122461673556 184.27558534998 0.006018
0 0.0022122461673556 167.16796535495 0.0057665312499999
0 0.0022122461673556 150.05688598668 0.0055151250000001
0 0.0022122461673556 132.94234423459 0.0052637812499999
0 0.0022122461673556 115.82433708443 0.0050124999999999
0 0.0022122461673556 98.702861518415 0.0047612812500001
0 0.0022122461673556 81.577914514876 0.0045101249999999
0 0.0022122461673556 64.44949304872 0.00425903125
0 0.0022122461673556 47.317594090925 0.004008
0 0.0022122461673556 30.182214609003 0.0037570312499999
0 0.0022122461673556 13.043351566724 0.003506125
0 0.0022122461673556 -4.0989980759318 0.00325528125
0 0.0022122461673556 13.043351566724 0.003506125
0 0.0022122461673556 30.182214609021 0.0037570312499999
0 0.0022122461673556 47.317594090948 0.004008
0 0.0022122461673556 64.449493048726 0.00425903125
0 0.0022122461673556 81.577914514888 0.0045101249999999
0 0.0022122461673556 98.702861518432 0.0047612812500001
0 0.0022122461673556 115.82433708448 0.0050124999999999
0 0.0022122461673556 132.94234423464 0.0052637812499999
0 0.0022122461673556 150.05688598669 0.0055151250000001
0 0.0022122461673556 167.16796535498 0.0057665312499999
0 0.0022122461673556 184.27558534999 0.006018
0 0.0022122461673556 201.3797489787 0.0062695312500001
0 0.0022122461673556 218.48045924432 0.0065211249999999
0 0.0022122461673556 235.57771914656 0.00677278125
0 0.0022122461673556 252.67153168134 0.0070244999999999
0 0.0022122461673556 269.76189984112 0.00727628125
0 0.0022122461673556 286.84882661458 0.0075281250000001
0 0.0022122461673556 303.93231498685 0.0077800312499999
0 0.0022122461673556 321.01236793955 0.008032
0 0.0023771753597624 321.12547985248 0.0082840312500001
0 0.0025420638973377 321.23856375714 0.008536125
0 0.0027069118001788 321.3516196674 0.0087882812500001
0 0.002871719088367 321.46464759719 0.0090404999999999
0 0.00303648578197 321.57764756033 0.00929278125
0 0.0032012119010399 321.69061957065 0.009545125
0 0.0033658974656137 321.80356364203 0.0097975312499999
0 0.0035305424957146 321.91647978822 0.01005
0 0.0036951470113497 322.02936802312 0.01030253125
0 0.003859711032512 322.14222836047 0.010555125
0 0.0040242345791797 322.25506081413 0.01080778125
0 0.0041887176713158 322.36786539781 0.0110605
0 0.0041887176713158 305.33843665622 0.01080778125
0 0.0041887176713158 288.30559296235 0.010555125
0 0.0041887176713158 271.26933136129 0.01030253125
0 0.0041887176713158 254.22964889454 0.01005
0 0.0041887176713158 237.18654259998 0.0097975312499999
0 0.0041887176713158 220.14000951203 0.009545125
0 0.0041887176713158 203.0900466614 0.00929278125
0 0.0041887176713158 186.03665107525 0.0090404999999999
0 0.0041887176713158 168.97981977716 0.0087882812500001
0 0.0041887176713158 151.91954978711 0.008536125
0 0.0041887176713158 134.85583812146 0.0082840312500001
0 0.0041887176713158 117.78868179296 0.008032
0 0.0041887176713158 100.71807781074 0.0077800312499999
0 0.0041887176713158 83.644023180387 0.0075281250000001
0 0.0041887176713158 66.566514903685 0.00727628125
0 0.0041887176713158 49.485549978978 0.0070244999999999
0 0.0041887176713158 32.401125400857 0.00677278125
0 0.0041887176713158 15.313238160307 0.0065211249999999
0 0.0041887176713158 -1.7781147553244 0.0062695312500001
0 0.0041887176713158 15.313238160307 0.0065211249999999
0 0.0041887176713158 32.401125400858 0.00677278125
0 0.0041887176713158 49.48554997898 0.0070244999999999
0 0.0041887176713158 66.566514903712 0.00727628125
0 0.0041887176713158 83.644023180369 0.0075281250000001
0 0.0041887176713158 100.71807781074 0.0077800312499999
0 0.0041887176713158 117.78868179296 0.008032
0 0.0041887176713158 134.85583812145 0.0082840312500001
0 0.0041887176713158 151.91954978707 0.008536125
0 0.0041887176713158 168.97981977714 0.0087882812500001
0 0.0041887176713158 186.03665107522 0.0090404999999999
0 0.0041887176713158 203.09004666137 0.00929278125
0 0.0041887176713158 220.14000951201 0.009545125
0 0.0041887176713158 237.18654259999 0.0097975312499999
0 0.0041887176713158 254.22964889453 0.01005
0 0.0041887176713158 271.26933136127 0.01030253125
0 0.0041887176713158 288.30559296234 0.010555125
0 0.0041887176713158 305.33843665619 0.01080778125
0 0.0041887176713158 322.36786539779 0.0110605
0 0.0043531603288688 322.48064212533 0.01131328125
0 0.0045175625717726 322.59339101047 0.011566125
0 0.004681924419946 322.70611206692 0.01181903125
0 0.0048462458932933 322.81880530848 0.012072
0 0.0050105270117042 322.93147074885 0.01232503125
0 0.005174767795053 323.04410840179 0.012578125
0 0.0053389682632001 323.15671828097 0.01283128125
0 0.0055031284359908 323.26930040012 0.0130845
0 0.0056672483332562 323.38185477291 0.01333778125
0 0.0058313279748118 323.49438141307 0.013591125
0 0.0059953673804594 323.6068803342 0.01384453125
0 0.0061593665699859 323.71935155 0.014098
0 0.0061593665699859 306.74024761613 0.01384453125
0 0.0061593665699859 289.75774901529 0.013591125
0 0.0061593665699859 272.77185281882 0.01333778125
0 0.0061593665699859 255.78255609456 0.0130845
0 0.0061593665699859 238.78985590677 0.01283128125
0 0.0061593665699859 221.79374931619 0.012578125
0 0.0061593665699859 204.79423338003 0.01232503125
0 0.0061593665699859 187.79130515193 0.012072
0 0.0061593665699859 170.78496168199 0.01181903125
0 0.0061593665699859 153.7752000168 0.011566125
0 0.0061593665699859 136.76201719928 0.01131328125
0 0.0061593665699859 119.74541026888 0.0110605
0 0.0061593665699859 102.72537626142 0.01080778125
0 0.0061593665699859 85.701912209153 0.010555125
0 0.0061593665699859 68.675015140784 0.01030253125
0 0.0061593665699859 51.644682081353 0.01005
0 0.0061593665699859 34.610910052404 0.0097975312499999
0 0.0061593665699859 17.573696071807 0.009545125
0 0.0061593665699859 0.53303715384484 0.00929278125
0 0.0061593665699859 -16.511069690786 0.0090404999999999
0 0.0061593665699859 0.53303715384053 0.00929278125
0 0.0061593665699859 17.573696071795 0.009545125
0 0.0061593665699859 34.610910052398 0.0097975312499999
0 0.0061593665699859 51.644682081353 0.01005
0 0.0061593665699859 68.675015140781 0.01030253125
0 0.0061593665699859 85.701912209167 0.010555125
0 0.0061593665699859 102.72537626144 0.01080778125
0 0.0061593665699859 119.74541026888 0.0110605
0 0.0061593665699859 136.76201719932 0.01131328125
0 0.0061593665699859 153.77520001685 0.011566125
0 0.0061593665699859 170.78496168204 0.01181903125
0 0.0061593665699859 187.79130515197 0.012072
0 0.0061593665699859 204.79423338005 0.01232503125
0 0.0061593665699859 221.7937493162 0.012578125
0 0.0061593665699859 238.78985590678 0.01283128125
0 0.0061593665699859 255.78255609456 0.0130845
0 0.0061593665699859 272.77185281886 0.01333778125
0 0.0061593665699859 289.75774901534 0.013591125
0 0.0061593665699859 306.74024761618 0.01384453125
0 0.0061593665699859 323.71935155008 0.014098
0 0.0063233255631641 323.83179507416 0.01435153125
0 0.0064872443797502 323.94421092026 0.014605125
0 0.0066511230394882 324.05659910197 0.01485878125
0 0.0068149615621062 324.16895963289 0.0151125
0 0.0069787599673187 324.28129252664 0.01536628125
0 0.0071425182748249 324.39359779682 0.015620125
0 0.0073062365043093 324.50587545703 0.01587403125
0 0.0074699146754428 324.61812552084 0.016128
0 0.0076335528078811 324.73034800182 0.01638203125
0 0.0077971509212654 324.84254291355 0.016636125
0 0.0079607090352233 324.95471026957 0.01689028125
0 0.0081242271693666 325.06685008343 0.0171445
0 0.0081242271693666 308.13777420272 0.01689028125
0 0.0081242271693666 291.20532376044 0.016636125
0 0.0081242271693666 274.2694958539 0.01638203125
0 0.0081242271693666 257.33028757692 0.016128
0 0.0081242271693666 240.38769601978 0.01587403125
0 0.0081242271693666 223.44171826937 0.015620125
0 0.0081242271693666 206.49235140895 0.01536628125
0 0.0081242271693666 189.53959251842 0.0151125
0 0.0081242271693666 172.58343867408 0.01485878125
0 0.0081242271693666 155.62388694869 0.014605125
0 0.0081242271693666 138.66093441156 0.01435153125
0 0.0081242271693666 121.69457812843 0.014098
0 0.0081242271693666 104.72481516152 0.01384453125
0 0.0081242271693666 87.75164256952 0.013591125
0 0.0081242271693666 70.775057407557 0.01333778125
0 0.0081242271693666 53.795056727234 0.0130845
0 0.0081242271693666 36.811637576646 0.01283128125
0 0.0081242271693666 19.824797000217 0.012578125
0 0.0081242271693666 2.8345320389049 0.01232503125
0 0.0081242271693666 -14.15916026993 0.012072
0 0.0081242271693666 2.8345320389029 0.01232503125
0 0.0081242271693666 19.824797000195 0.012578125
0 0.0081242271693666 36.811637576616 0.01283128125
0 0.0081242271693666 53.795056727213 0.0130845
0 0.0081242271693666 70.775057407529 0.01333778125
0 0.0081242271693666 87.751642569489 0.013591125
0 0.0081242271693666 104.72481516148 0.01384453125
0 0.0081242271693666 121.69457812839 0.014098
0 0.0081242271693666 138.66093441152 0.01435153125
0 0.0081242271693666 155.62388694864 0.014605125
0 0.0081242271693666 172.58343867403 0.01485878125
0 0.0081242271693666 189.53959251838 0.0151125
0 0.0081242271693666 206.49235140891 0.01536628125
0 0.0081242271693666 223.4417182693 0.015620125
0 0.0081242271693666 240.38769601969 0.01587403125
0 0.0081242271693666 257.33028757684 0.016128
0 0.0081242271693666 274.26949585383 0.01638203125
0 0.0081242271693666 291.20532376038 0.016636125
0 0.0081242271693666 308.13777420268 0.01689028125
0 0.0081242271693666 325.06685008337 0.0171445
0 0.0082877053432932 325.17896236864 0.01739878125
0 0.0084511435765879 325.29104713874 0.017653125
0 0.0086145418888191 325.40310440724 0.01790753125
0 0.0087779002995419 325.51513418764 0.018162
0 0.0089412188282967 325.62713649342 0.01841653125
0 0.0091044974946094 325.73911133808 0.018671125
0 0.0092677363179921 325.85105873509 0.01892578125
0 0.0094309353179419 325.9629786979 0.0191805
0 0.0095940945139422 326.07487123997 0.01943528125
0 0.0097572139254618 326.18673637474 0.019690125
0 0.0099202935719548 326.29857411564 0.01994503125
0.0019496203705373 0.01008450841727 317.34355158767 0.0202
0.0019496203705373 0.01008450841727 300.92700135106 0.01994503125
0.0019496203705373 0.01008450841727 284.50718844699 0.019690125
0.0019496203705373 0.01008450841727 268.08411007727 0.01943528125
0.0019496203705373 0.01008450841727 251.65776344038 0.0191805
0.0019496203705373 0.01008450841727 235.22814573143 0.01892578125
0.0019496203705373 0.01008450841727 218.79525414218 0.018671125
0.0019496203705373 0.01008450841727 202.35908586106 0.01841653125
0.0019496203705373 0.01008450841727 185.9196380731 0.018162
0.0019496203705373 0.01008450841727 169.47690795992 0.01790753125
0.0019496203705373 0.01008450841727 153.03089269985 0.017653125
0.0019496203705373 0.01008450841727 136.58158946775 0.01739878125
0.0019496203705373 0.01008450841727 120.12899543515 0.0171445
0.0019496203705373 0.01008450841727 103.67310777017 0.01689028125
0.0019496203705373 0.01008450841727 87.213923637482 0.016636125
0.0019496203705373 0.01008450841727 70.751440198448 0.01638203125
0.0019496203705373 0.01008450841727 54.285654610925 0.016128
0.0019496203705373 0.01008450841727 37.816564029436 0.01587403125
0.0019496203705373 0.01008450841727 21.344165605069 0.015620125
0.0019496203705373 0.01008450841727 4.8684564854191 0.01536628125
0.0019496203705373 0.01008450841727 -11.646738138587 0.0151125
0.0019496203705373 0.01008450841727 4.8684564854073 0.01536628125
0.0019496203705373 0.01008450841727 21.34416560506 0.015620125
0.0019496203705373 0.01008450841727 37.816564029462 0.01587403125
0.0019496203705373 0.01008450841727 54.285654610955 0.016128
0.0019496203705373 0.01008450841727 70.751440198472 0.01638203125
0.0019496203705373 0.01008450841727 87.213923637513 0.016636125
0.0019496203705373 0.01008450841727 103.67310777021 0.01689028125
0.0019496203705373 0.01008450841727 120.1289954352 0.0171445
0.0019496203705373 0.01008450841727 136.58158946779 0.01739878125
0.0019496203705373 0.01008450841727 153.03089269989 0.017653125
0.0019496203705373 0.01008450841727 169.47690795996 0.01790753125
0.0019496203705373 0.01008450841727 185.91963807312 0.018162
0.0019496203705373 0.01008450841727 202.35908586109 0.01841653125
0.0019496203705373 0.01008450841727 218.7952541422 0.018671125
0.0019496203705373 0.01008450841727 235.22814573143 0.01892578125
0.0019496203705373 0.01008450841727 251.65776344037 0.0191805
0.0019496203705373 0.01008450841727 268.08411007728 0.01943528125
0.0019496203705373 0.01008450841727 284.507188447 0.019690125
0.0019496203705373 0.01008450841727 300.92700135106 0.01994503125
0.0019496203705373 0.01008450841727 317.34355158762 0.0202
0.0048610191290197 0.010253376691071 304.22671017841 0.02045503125
0.0077776116407047 0.010426669678483 291.48705743368 0.020710125
0.010676922985284 0.010603765670298 279.24378497486 0.02096528125
0.013539214906924 0.010783990630126 267.58411174659 0.0212205
0.016348390639927 0.010966675170788 256.56259994108 0.02147578125
0.019092307744966 0.011151197805144 246.2043131529 0.021731125
0.021762606088943 0.011337011386119 236.51023944997 0.02198653125
0.024354227556633 0.011523654294047 227.46344252334 0.022242
0.026864798972138 0.011710750322278 219.03484119688 0.02249753125
0.029294004961609 0.011898001602808 211.18803412665 0.022753125
0.031643025103567 0.012085178159996 203.88299434875 0.02300878125
0.0339140673874 0.012272106566622 197.07870509103 0.0232645
0.033914067716482 0.012272106566622 186.15133447825 0.02300878125
0.033914067716482 0.012272106566622 175.22179803728 0.022753125
0.033914067716482 0.012272106566622 164.29009317553 0.02249753125
0.033914067716482 0.012272106566622 153.35621803788 0.022242
0.033914067716482 0.012272106566622 142.42017076702 0.02198653125
0.033914067716482 0.012272106566622 131.48194950341 0.021731125
0.033914067716482 0.012272106566622 120.54155238527 0.02147578125
0.033914067716482 0.012272106566622 109.59897754861 0.0212205
0.033914067716482 0.012272106566622 98.65422312721 0.02096528125
0.033914067716482 0.012272106566622 87.707287252629 0.020710125
0.033914067716482 0.012272106566622 76.758168054199 0.02045503125
0.033914067716482 0.012272106566622 65.806863658958 0.0202
0.033914067716482 0.012272106566622 54.853372191784 0.01994503125
0.033914067716482 0.012272106566622 43.897691775259 0.019690125
0.033914067716482 0.012272106566622 32.939820529737 0.01943528125
0.033914067716482 0.012272106566622 21.979756573303 0.0191805
0.033914067716482 0.012272106566622 11.017498021833 0.01892578125
0.033914067716482 0.012272106566622 0.053042988949347 0.018671125
0.033914067716482 0.012272106566622 -11.364961869564 0.01841653125
0.033914067716482 0.012272106566622 0.053042988902147 0.018671125
0.033914067716482 0.012272106566622 11.017498021844 0.01892578125
0.033914067716482 0.012272106566622 21.979756573319 0.0191805
0.033914067716482 0.012272106566622 32.939820529746 0.01943528125
0.033914067716482 0.012272106566622 43.897691775281 0.019690125
0.033914067716482 0.012272106566622 54.853372191801 0.01994503125
0.033914067716482 0.012272106566622 65.806863658972 0.0202
0.033914067716482 0.012272106566622 76.758168054219 0.02045503125
0.033914067716482 0.012272106566622 87.707287252647 0.020710125
0.033914067716482 0.012272106566622 98.654223127243 0.02096528125
0.033914067716482 0.012272106566622 109.59897754864 0.0212205
0.033914067716482 0.012272106566622 120.5415523853 0.02147578125
0.033914067716482 0.012272106566622 131.48194950346 0.021731125
0.033914067716482 0.012272106566622 142.42017076708 0.02198653125
0.033914067716482 0.012272106566622 153.35621803793 0.022242
0.033914067716482 0.012272106566622 164.29009317558 0.02249753125
0.033914067716482 0.012272106566622 175.22179803733 0.022753125
0.033914067716482 0.012272106566622 186.15133447831 0.02300878125
0.033914067716482 0.012272106566622 197.07870435138 0.0232645
0.036110002611356 0.012458659161229 190.73491960492 0.02352028125
0.03823408987709 0.012644744538438 184.81325231191 0.023776125
0.040289777646759 0.012830299547707 179.27778878766 0.02403203125
0.042280564166017 0.013015282769079 174.09536595168 0.024288
0.044209902790263 0.013199669306876 169.23563635323 0.02454403125
0.046081140335449 0.013383446697843 164.67099811628 0.024800125
0.047897479161879 0.013566611730144 160.37644683366 0.02505628125
0.049661955977555 0.01374916799033 156.3293869814 0.0253125
0.051377432187143 0.013931123983462 152.50942714833 0.02556878125
0.053046592724502 0.014112491707681 148.89817273536 0.025825125
0.054671946369437 0.014293285532685 145.47903448225 0.02608153125
0.056255836948514 0.014473521432033 142.23703315798 0.026338
0.056255836948514 0.014473521432033 133.67240398967 0.02608153125
0.056255836948514 0.014473521432033 125.10608065164 0.025825125
0.056255836948514 0.014473521432033 116.53806169901 0.02556878125
0.056255836948514 0.014473521432033 107.96834568524 0.0253125
0.056255836948514 0.014473521432033 99.396931162013 0.02505628125
0.056255836948514 0.014473521432033 90.823816679317 0.024800125
0.056255836948514 0.014473521432033 82.249000785407 0.02454403125
0.056255836948514 0.014473521432033 73.672482026803 0.024288
0.056255836948514 0.014473521432033 65.094258948297 0.02403203125
0.056255836948514 0.014473521432033 56.514330092961 0.023776125
0.056255836948514 0.014473521432033 47.932694002112 0.02352028125
0.056255836948514 0.014473521432033 39.349349215313 0.0232645
0.056255836948514 0.014473521432033 30.764294270441 0.02300878125
0.056255836948514 0.014473521432033 22.177527703558 0.022753125
0.056255836948514 0.014473521432033 13.58904804904 0.02249753125
0.056255836948514 0.014473521432033 4.9988538394623 0.022242
0.056255836948514 0.014473521432033 -3.8040467434505 0.02198653125
0.056255836948514 0.014473521432033 4.998853839455 0.022242
0.056255836948514 0.014473521432033 13.589048049033 0.02249753125
0.056255836948514 0.014473521432033 22.177527703559 0.022753125
0.056255836948514 0.014473521432033 30.764294270445 0.02300878125
0.056255836948514 0.014473521432033 39.349349215328 0.0232645
0.056255836948514 0.014473521432033 47.932694002107 0.02352028125
0.056255836948514 0.014473521432033 56.514330092961 0.023776125
0.056255836948514 0.014473521432033 65.094258948303 0.02403203125
0.056255836948514 0.014473521432033 73.672482026803 0.024288
0.056255836948514 0.014473521432033 82.249000785403 0.02454403125
0.056255836948514 0.014473521432033 90.823816679315 0.024800125
0.056255836948514 0.014473521432033 99.39693116201 0.02505628125
0.056255836948514 0.014473521432033 107.96834568524 0.0253125
0.056255836948514 0.014473521432033 116.53806169901 0.02556878125
0.056255836948514 0.014473521432033 125.10608065164 0.025825125
0.056255836948514 0.014473521432033 133.67240398967 0.02608153125
0.056255836948514 0.014473521432033 142.23703315798 0.026338
0.057800448336627 0.014653216326607 139.15863721773 0.02659453125
0.059307814784232 0.014832387633936 136.23160680483 0.026851125
0.060779830708503 0.015011052926311 133.44485540528 0.02710778125
0.062218260472792 0.015189229680043 130.78832623925 0.0273645
0.063624747894616 0.015366935094166 128.25288225646 0.02762128125
0.065000825322254 0.015544185961944 125.83020849072 0.027878125
0.066347922189117 0.015720998582443 123.51272551936 0.02813503125
0.067667373002972 0.015897388702397 121.29351282297 0.028392
0.06896042475991 0.016073371480915 119.1662409225 0.02864903125
0.070228243788291 0.016248961471248 117.12511127788 0.028906125
0.07147192204866 0.016424172615286 115.16480302165 0.02916328125
0.07269248291549 0.016599018247367 113.28042571442 0.0294205
0.07269248291549 0.016599018247367 106.0182567654 0.02916328125
0.07269248291549 0.016599018247367 98.754654856709 0.028906125
0.07269248291549 0.016599018247367 91.489618769737 0.02864903125
0.07269248291549 0.016599018247367 84.223147284392 0.028392
0.07269248291549 0.016599018247367 76.955239179143 0.02813503125
0.07269248291549 0.016599018247367 69.685893231011 0.027878125
0.07269248291549 0.016599018247367 62.415108215562 0.02762128125
0.07269248291549 0.016599018247367 55.142882906902 0.0273645
0.07269248291549 0.016599018247367 47.869216077701 0.02710778125
0.07269248291549 0.016599018247367 40.594106499147 0.026851125
0.07269248291549 0.016599018247367 33.317552940987 0.02659453125
0.07269248291549 0.016599018247367 26.039554171492 0.026338
0.07269248291549 0.016599018247367 18.760108957454 0.02608153125
0.07269248291549 0.016599018247367 11.479216064243 0.025825125
0.07269248291549 0.016599018247367 4.1968742557108 0.02556878125
0.07269248291549 0.016599018247367 -3.2983892415412 0.0253125
0.07269248291549 0.016599018247367 4.1968742557096 0.02556878125
0.07269248291549 0.016599018247367 11.479216064249 0.025825125
0.07269248291549 0.016599018247367 18.760108957458 0.02608153125
0.07269248291549 0.016599018247367 26.039554171495 0.026338
0.07269248291549 0.016599018247367 33.317552941002 0.02659453125
0.07269248291549 0.016599018247367 40.594106499158 0.026851125
0.07269248291549 0.016599018247367 47.869216077708 0.02710778125
0.07269248291549 0.016599018247367 55.142882906908 0.0273645
0.07269248291549 0.016599018247367 62.415108215562 0.02762128125
0.07269248291549 0.016599018247367 69.685893231015 0.027878125
0.07269248291549 0.016599018247367 76.955239179135 0.02813503125
0.07269248291549 0.016599018247367 84.22314728439 0.028392
0.07269248291549 0.016599018247367 91.489618769739 0.02864903125
0.07269248291549 0.016599018247367 98.754654856708 0.028906125
0.07269248291549 0.016599018247367 106.0182567654 0.02916328125
0.07269248291549 0.016599018247367 113.28042571443 0.0294205
0.07389088647695 0.016773511104871 111.46747739232 0.02967778125
0.075068034385593 0.016947663343596 109.7218072717 0.029935125
0.07622477429635 0.017121486556454 108.03958254752 0.03019253125
0.077361903925215 0.01729499179431 106.41725879551 0.03045
0.078480174761654 0.01746818958814 104.85155354689 0.03070753125
0.079580295463564 0.017641089971828 103.33942266219 0.030965125
0.080662934965536 0.017813702505152 101.87803917151 0.03122278125
0.0817287253239 0.017986036296573 100.46477429777 0.0314805
0.082778264323438 0.018158100025583 99.09718040982 0.03173828125
0.083812117868283 0.018329901964443 97.772975684433 0.031996125
0.084830822174877 0.018501449999149 96.490030286837 0.03225403125
0.085834885786546 0.01867275164958 95.246353898611 0.032512
0.085834885786546 0.01867275164958 88.839038024468 0.03225403125
0.085834885786546 0.01867275164958 82.430461145554 0.031996125
0.085834885786546 0.01867275164958 76.020622192494 0.03173828125
0.085834885786546 0.01867275164958 69.609520094677 0.0314805
0.085834885786546 0.01867275164958 63.197153780219 0.03122278125
0.085834885786546 0.01867275164958 56.783522175951 0.030965125
0.085834885786546 0.01867275164958 50.368624207452 0.03070753125
0.085834885786546 0.01867275164958 43.952458799012 0.03045
0.085834885786546 0.01867275164958 37.53502487366 0.03019253125
0.085834885786546 0.01867275164958 31.11632135315 0.029935125
0.085834885786546 0.01867275164958 24.696347157948 0.02967778125
0.085834885786546 0.01867275164958 18.275101207247 0.0294205
0.085834885786546 0.01867275164958 11.852582418958 0.02916328125
0.085834885786546 0.01867275164958 5.4287897096944 0.028906125
0.085834885786546 0.01867275164958 -1.0710236596801 0.02864903125
0.085834885786546 0.01867275164958 5.4287897096938 0.028906125
0.085834885786546 0.01867275164958 11.852582418955 0.02916328125
0.085834885786546 0.01867275164958 18.275101207243 0.0294205
0.085834885786546 0.01867275164958 24.69634715795 0.02967778125
0.085834885786546 0.01867275164958 31.116321353154 0.029935125
0.085834885786546 0.01867275164958 37.535024873658 0.03019253125
0.085834885786546 0.01867275164958 43.952458799011 0.03045
0.085834885786546 0.01867275164958 50.368624207446 0.03070753125
0.085834885786546 0.01867275164958 56.783522175944 0.030965125
0.085834885786546 0.01867275164958 63.19715378022 0.03122278125
0.085834885786546 0.01867275164958 69.609520094677 0.0314805
0.085834885786546 0.01867275164958 76.020622192498 0.03173828125
0.085834885786546 0.01867275164958 82.430461145556 0.031996125
0.085834885786546 0.01867275164958 88.83903802447 0.03225403125
0.085834885786546 0.01867275164958 95.246353898609 0.032512
0.086824791425675 0.018843814088769 94.040084444796 0.03277003125
0.087800997697641 0.019014644161258 92.869477890495 0.033028125
0.088763940659735 0.019185248400551 91.732898992002 0.03328628125
0.089714035267887 0.019355633045668 90.628812900368 0.0335445
0.090651676712048 0.019525804056827 89.555777527833 0.03380278125
0.091577241649008 0.019695767130256 88.512436599596 0.034061125
0.092491089342391 0.019865527712202 87.497513319851 0.03431953125
0.093393562717885 0.020035091012136 86.509804589952 0.034578
0.094284989340748 0.020204462015225 85.548175724129 0.03483653125
0.095165682322118 0.020373645494073 84.611555613737 0.035095125
0.096035941160338 0.0205426460198 83.698932296312 0.03535378125
0.096896052522281 0.02071146797247 82.809348890955 0.0356125
0.096896052522281 0.02071146797247 77.021309772349 0.03535378125
0.096896052522281 0.02071146797247 71.232134552837 0.035095125
0.096896052522281 0.02071146797247 65.441822271722 0.03483653125
0.096896052522281 0.02071146797247 59.650371967176 0.034578
0.096896052522281 0.02071146797247 53.857782676244 0.03431953125
0.096896052522281 0.02071146797247 48.064053434824 0.034061125
0.096896052522281 0.02071146797247 42.269183277674 0.03380278125
0.096896052522281 0.02071146797247 36.473171238427 0.0335445
0.096896052522281 0.02071146797247 30.676016349556 0.03328628125
0.096896052522281 0.02071146797247 24.8777176424 0.033028125
0.096896052522281 0.02071146797247 19.078274147161 0.03277003125
0.096896052522281 0.02071146797247 13.277684892882 0.032512
0.096896052522281 0.02071146797247 7.4759489074579 0.03225403125
0.096896052522281 0.02071146797247 1.673065217653 0.031996125
0.096896052522281 0.02071146797247 -4.4603670512557 0.03173828125
0.096896052522281 0.02071146797247 1.6730652176527 0.031996125
0.096896052522281 0.02071146797247 7.4759489074614 0.03225403125
0.096896052522281 0.02071146797247 13.277684892884 0.032512
0.096896052522281 0.02071146797247 19.078274147166 0.03277003125
0.096896052522281 0.02071146797247 24.877717642404 0.033028125
0.096896052522281 0.02071146797247 30.676016349561 0.03328628125
0.096896052522281 0.02071146797247 36.47317123843 0.0335445
0.096896052522281 0.02071146797247 42.26918327768 0.03380278125
0.096896052522281 0.02071146797247 48.06405343483 0.034061125
0.096896052522281 0.02071146797247 53.857782676245 0.03431953125
0.096896052522281 0.02071146797247 59.650371967181 0.034578
0.096896052522281 0.02071146797247 65.441822271728 0.03483653125
0.096896052522281 0.02071146797247 71.232134552837 0.035095125
0.096896052522281 0.02071146797247 77.021309772358 0.03535378125
0.096896052522281 0.02071146797247 82.809348890971 0.0356125
0.097746290970526 0.020880115550924 81.941899864396 0.03587128125
0.098586919639641 0.021048592782038 81.095727598096 0.036130125
0.099418190865775 0.021216903529442 80.270019228329 0.03638903125
0.10024034677567 0.021385051501754 79.464003731951 0.036648
0.10105361983334 0.02155304026031 78.676949240825 0.03690703125
0.10185823335362 0.021720873226478 77.908160558361 0.037166125
0.10265440197999 0.021888553688529 77.156976865816 0.03742528125
0.1034423321335 0.022056084808144 76.422769597575 0.0376845
0.10422222243153 0.022223469626525 75.704940474433 0.03794378125
0.104994264081 0.022390711070174 75.002919679023 0.038203125
0.10575864124754 0.022557811956356 74.316164162076 0.03846253125
0.10651553140111 0.022724774998241 73.644156069482 0.038722
0.10651553140111 0.022724774998241 68.33322357809 0.03846253125
0.10651553140111 0.022724774998241 63.021251445879 0.038203125
0.10651553140111 0.022724774998241 57.708238796208 0.03794378125
0.10651553140111 0.022724774998241 52.394184751434 0.0376845
0.10651553140111 0.022724774998241 47.07908843287 0.03742528125
0.10651553140111 0.022724774998241 41.762948960793 0.037166125
0.10651553140111 0.022724774998241 36.445765454449 0.03690703125
0.10651553140111 0.022724774998241 31.127537032045 0.036648
0.10651553140111 0.022724774998241 25.808262810749 0.03638903125
0.10651553140111 0.022724774998241 20.487941906692 0.036130125
0.10651553140111 0.022724774998241 15.166573434954 0.03587128125
0.10651553140111 0.022724774998241 9.8441565095875 0.0356125
0.10651553140111 0.022724774998241 4.5206902435942 0.03535378125
0.10651553140111 0.022724774998241 -0.87090930449308 0.035095125
0.10651553140111 0.022724774998241 4.5206902435904 0.03535378125
0.10651553140111 0.022724774998241 9.8441565095826 0.0356125
0.10651553140111 0.022724774998241 15.166573434947 0.03587128125
0.10651553140111 0.022724774998241 20.487941906685 0.036130125
0.10651553140111 0.022724774998241 25.808262810737 0.03638903125
0.10651553140111 0.022724774998241 31.127537032032 0.036648
0.10651553140111 0.022724774998241 36.445765454433 0.03690703125
0.10651553140111 0.022724774998241 41.76294896078 0.037166125
0.10651553140111 0.022724774998241 47.079088432855 0.03742528125
0.10651553140111 0.022724774998241 52.394184751421 0.0376845
0.10651553140111 0.022724774998241 57.708238796194 0.03794378125
0.10651553140111 0.022724774998241 63.021251445863 0.038203125
0.10651553140111 0.022724774998241 68.333223578074 0.03846253125
0.10651553140111 0.022724774998241 73.644156069472 0.038722
0.1072651056411 0.022891602809773 72.986401279473 0.03898153125
0.10800752900187 0.023058297910266 72.342428041035 0.039241125
0.10874296074031 0.023224862728752 71.711785705554 0.03950078125
0.10947155460614 0.023391299608086 71.09404354475 0.0397605
0.11019345909701 0.023557610808843 70.488789647185 0.04002028125
0.11090881769873 0.023723798512993 69.89562988814 0.040280125
0.11161776911153 0.023889864827388 69.314186967191 0.04054003125
0.11232044746447 0.024055811787064 68.744099507314 0.0408
0.11301698251703 0.024221641358366 68.185021212492 0.04106003125
0.11370749985049 0.02438735544192 67.636620077964 0.041320125
0.11439212104835 0.024552955875447 67.098577650371 0.04158028125
0.11507096386677 0.024718444436421 66.570588334027 0.0418405
0.11507096386677 0.024718444436421 61.64291311702 0.04158028125
0.11507096386677 0.024718444436421 56.71427591085 0.041320125
0.11507096386677 0.024718444436421 51.784675906699 0.04106003125
0.11507096386677 0.024718444436421 46.854112294778 0.0408
0.11507096386677 0.024718444436421 41.922584264342 0.04054003125
0.11507096386677 0.024718444436421 36.990091003718 0.040280125
0.11507096386677 0.024718444436421 32.056631700264 0.04002028125
0.11507096386677 0.024718444436421 27.122205540372 0.0397605
0.11507096386677 0.024718444436421 22.186811709521 0.03950078125
0.11507096386677 0.024718444436421 17.250449392177 0.039241125
0.11507096386677 0.024718444436421 12.313117771891 0.03898153125
0.11507096386677 0.024718444436421 7.374816031237 0.038722
0.11507096386677 0.024718444436421 2.4355433518339 0.03846253125
0.11507096386677 0.024718444436421 -2.7211010365587 0.038203125
0.11507096386677 0.024718444436421 2.4355433518368 0.03846253125
0.11507096386677 0.024718444436421 7.3748160312369 0.038722
0.11507096386677 0.024718444436421 12.313117771883 0.03898153125
0.11507096386677 0.024718444436421 17.250449392169 0.039241125
0.11507096386677 0.024718444436421 22.186811709513 0.03950078125
0.11507096386677 0.024718444436421 27.122205540371 0.0397605
0.11507096386677 0.024718444436421 32.056631700262 0.04002028125
0.11507096386677 0.024718444436421 36.990091003723 0.040280125
0.11507096386677 0.024718444436421 41.922584264349 0.04054003125
0.11507096386677 0.024718444436421 46.854112294783 0.0408
0.11507096386677 0.024718444436421 51.784675906702 0.04106003125
0.11507096386677 0.024718444436421 56.714275910862 0.041320125
0.11507096386677 0.024718444436421 61.64291311703 0.04158028125
0.11507096386677 0.024718444436421 66.570588334038 0.0418405
0.1157441423972 0.02488382284462 66.052358738757 0.04210078125
0.11641176721894 0.025049092764517 65.543607068439 0.042361125
0.11707394554493 0.025214255807577 65.044062545426 0.04262153125
0.11773078135922 0.025379313534424 64.553464869763 0.042882
0.11838237554812 0.025544267456908 64.071563709748 0.04314253125
0.11902882602405 0.025709119040073 63.598118222612 0.043403125
0.1196702278437 0.025873869704023 63.132896602539 0.04366378125
0.12030667332027 0.026038520825705 62.6756756545 0.0439245
0.12093825212994 0.026203073740601 62.226240392425 0.04418528125
0.12156505141336 0.026367529744345 61.784383659677 0.044446125
0.12218715587258 0.026531890094265 61.349905770418 0.04470703125
0.12280464786275 0.026696156010847 60.922614171092 0.044968
0.12280464786275 0.026696156010847 56.312230053566 0.04470703125
0.12280464786275 0.026696156010847 51.70094835607 0.044446125
0.12280464786275 0.026696156010847 47.088768326074 0.04418528125
0.12280464786275 0.026696156010847 42.475689210166 0.0439245
0.12280464786275 0.026696156010847 37.861710254044 0.04366378125
0.12280464786275 0.026696156010847 33.246830702531 0.043403125
0.12280464786275 0.026696156010847 28.631049799567 0.04314253125
0.12280464786275 0.026696156010847 24.014366788212 0.042882
0.12280464786275 0.026696156010847 19.39678091062 0.04262153125
0.12280464786275 0.026696156010847 14.778291408082 0.042361125
0.12280464786275 0.026696156010847 10.158897520983 0.04210078125
0.12280464786275 0.026696156010847 5.538598488822 0.0418405
0.12280464786275 0.026696156010847 0.91739355021727 0.04158028125
0.12280464786275 0.026696156010847 -4.033844827165 0.041320125
0.12280464786275 0.026696156010847 0.91739355021936 0.04158028125
0.12280464786275 0.026696156010847 5.5385984888268 0.0418405
0.12280464786275 0.026696156010847 10.158897520987 0.04210078125
0.12280464786275 0.026696156010847 14.778291408093 0.042361125
0.12280464786275 0.026696156010847 19.396780910629 0.04262153125
0.12280464786275 0.026696156010847 24.014366788219 0.042882
0.12280464786275 0.026696156010847 28.631049799574 0.04314253125
0.12280464786275 0.026696156010847 33.246830702538 0.043403125
0.12280464786275 0.026696156010847 37.861710254052 0.04366378125
0.12280464786275 0.026696156010847 42.475689210175 0.0439245
0.12280464786275 0.026696156010847 47.088768326088 0.04418528125
0.12280464786275 0.026696156010847 51.700948356086 0.044446125
0.12280464786275 0.026696156010847 56.312230053586 0.04470703125
0.12280464786275 0.026696156010847 60.922614171108 0.044968
0.12341760747958 0.026860328679131 60.502323120249 0.04522903125
0.12402611264372 0.027024409250056 60.08885338493 0.045490125
0.12463023917953 0.027188398841725 59.682031954489 0.04575128125
0.12523006089185 0.02735229854063 59.281691768388 0.0460125
0.12582564963841 0.027516109402812 58.887671458927 0.04627378125
0.12641707539896 0.027679832454966 58.499815107329 0.046535125
0.12700440634188 0.027843468695511 58.117972011979 0.04679653125
0.1275877088873 0.028007019095604 57.741996468894 0.047058
0.12816704776766 0.028170484600106 57.37174756318 0.04731953125
0.12874248608593 0.028333866128515 57.007088970679 0.047581125
0.12931408537073 0.028497164575859 56.647888769972 0.04784278125
0.12988190562939 0.028660380813536 56.294019263365 0.0481045
0.12988190562939 0.028660380813536 51.952361904883 0.04784278125
0.12988190562939 0.028660380813536 47.609861610518 0.047581125
0.12988190562939 0.028660380813536 43.266517675555 0.04731953125
0.12988190562939 0.028660380813536 38.922329394463 0.047058
0.12988190562939 0.028660380813536 34.577296060885 0.04679653125
0.12988190562939 0.028660380813536 30.231416967647 0.046535125
0.12988190562939 0.028660380813536 25.884691406742 0.04627378125
0.12988190562939 0.028660380813536 21.53711866933 0.0460125
0.12988190562939 0.028660380813536 17.18869804576 0.04575128125
0.12988190562939 0.028660380813536 12.839428825536 0.045490125
0.12988190562939 0.028660380813536 8.489310297344 0.04522903125
0.12988190562939 0.028660380813536 4.1383417490407 0.044968
0.12988190562939 0.028660380813536 -0.23290101363897 0.04470703125
0.12988190562939 0.028660380813536 4.1383417490438 0.044968
0.12988190562939 0.028660380813536 8.4893102973496 0.04522903125
0.12988190562939 0.028660380813536 12.839428825542 0.045490125
0.12988190562939 0.028660380813536 17.188698045766 0.04575128125
0.12988190562939 0.028660380813536 21.537118669335 0.0460125
0.12988190562939 0.028660380813536 25.884691406749 0.04627378125
0.12988190562939 0.028660380813536 30.231416967658 0.046535125
0.12988190562939 0.028660380813536 34.577296060896 0.04679653125
0.12988190562939 0.028660380813536 38.922329394467 0.047058
0.12988190562939 0.028660380813536 43.266517675558 0.04731953125
0.12988190562939 0.028660380813536 47.609861610521 0.047581125
0.12988190562939 0.028660380813536 51.952361904889 0.04784278125
0.12988190562939 0.028660380813536 56.294019263374 0.0481045
0.13044600539915 0.028823515690146 55.945356806439 0.04836628125
0.13100644179565 0.028986570032258 55.601781646182 0.048628125
0.13156327055951 0.029149544645166 55.263177766868 0.04889003125
0.13211654610144 0.029312440313609 54.929432742945 0.049152
0.13266632154481 0.029475257802454 54.600437599372 0.04941403125
0.13321264876717 0.02963799785736 54.276086678027 0.049676125
0.13375557843945 0.029800661205411 53.956277510794 0.04993828125
0.13429516006432 0.029963248555725 53.640910697946 0.0502005
0.13483144201241 0.03012576060004 53.329889792634 0.05046278125
0.13536447155753 0.030288198013271 53.023121190201 0.050725125
0.13589429491013 0.030450561454052 52.720514022834 0.05098753125
0.13642095725004 0.030612851565255 52.421980058495 0.05125
0.13642095725004 0.030612851565255 48.312003671696 0.05098753125
0.13642095725004 0.030612851565255 44.201231532222 0.050725125
0.13642095725004 0.030612851565255 40.089662976691 0.05046278125
0.13642095725004 0.030612851565255 35.977297340952 0.0502005
0.13642095725004 0.030612851565255 31.864133960093 0.04993828125
0.13642095725004 0.030612851565255 27.750172168406 0.049676125
0.13642095725004 0.030612851565255 23.635411299428 0.04941403125
0.13642095725004 0.030612851565255 19.519850685914 0.049152
0.13642095725004 0.030612851565255 15.403489659834 0.04889003125
0.13642095725004 0.030612851565255 11.286327552401 0.048628125
0.13642095725004 0.030612851565255 7.1683636940271 0.04836628125
0.13642095725004 0.030612851565255 3.0495974143477 0.0481045
0.13642095725004 0.030612851565255 -1.1692410703447 0.04784278125
0.13642095725004 0.030612851565255 3.049597414349 0.0481045
0.13642095725004 0.030612851565255 7.1683636940252 0.04836628125
0.13642095725004 0.030612851565255 11.286327552405 0.048628125
0.13642095725004 0.030612851565255 15.40348965984 0.04889003125
0.13642095725004 0.030612851565255 19.519850685919 0.049152
0.13642095725004 0.030612851565255 23.63541129943 0.04941403125
0.13642095725004 0.030612851565255 27.750172168409 0.049676125
0.13642095725004 0.030612851565255 31.864133960095 0.04993828125
0.13642095725004 0.030612851565255 35.977297340954 0.0502005
0.13642095725004 0.030612851565255 40.089662976692 0.05046278125
0.13642095725004 0.030612851565255 44.201231532223 0.050725125
0.13642095725004 0.030612851565255 48.312003671696 0.05098753125
0.13642095725004 0.030612851565255 52.421980058493 0.05125
0.13694450275716 0.030775068974486 52.127433604898 0.05151253125
